LAMMPS (16 Mar 2018)
#

# variables available on command line

variable        T index 293.15      # K
variable        P index 15     # MPa
variable	    fe index 1.0948
variable        Patm equal ${P}/0.101325       # atm
variable        Patm equal 15/0.101325       

# global model settings

echo               both
units              real
dimension          3
atom_style         full
boundary           p p p

pair_style         lj/cut/coul/long  12.5
pair_modify        shift yes mix arithmetic
kspace_style       pppm 0.0001
bond_style         harmonic
angle_style        harmonic
read_data         C100_H2_1020watergcmc1ns.data
  orthogonal box = (0 0 -70) to (200.008 30.0013 70)
  5 by 1 by 3 MPI processor grid
  reading atoms ...
  37724 atoms
  reading velocities ...
  37724 velocities
  scanning bonds ...
  2 = max bonds/atom
  scanning angles ...
  1 = max angles/atom
  reading bonds ...
  2040 bonds
  reading angles ...
  1020 angles
  2 = max # of 1-2 neighbors
  1 = max # of 1-3 neighbors
  1 = max # of 1-4 neighbors
  2 = max # of special neighbors

# pair_coeff

pair_coeff 	1	1	0.105	3.851
pair_coeff 	2	2	0.105	3.851
pair_coeff 	3	3	0.105	3.851
pair_coeff 	4	4	0.105	3.851
pair_coeff 	5	5	0.105	3.851
pair_coeff 	6	6	0.274	4.035
pair_coeff 	7	7	0.06	3.5
pair_coeff 	8	8	0.105	3.851
pair_coeff 	9	9	0.069	3.66
pair_coeff 	10	10	0.069	3.66
pair_coeff 	11	11	0.105	3.851
pair_coeff 	12	12	0.06	3.5
pair_coeff 	13	13	0.06	3.5
pair_coeff 	14	14    0.044 2.886
pair_coeff 	15	15    0.044 2.886
pair_coeff 	16	16    0.044 2.886

pair_coeff      17 17 0.15535 3.166
pair_coeff      18 18 0.0000 0.0000

pair_coeff 	19	19    0.072896 2.958

# region
region            soall  block  EDGE EDGE EDGE EDGE -20  20 units box side in
region            subbulk  block  EDGE EDGE EDGE EDGE -16.25  16.25 units box side in

# define groups
molecule        h2omol H2O.txt
Read molecule h2omol:
  3 atoms with max type 2
  2 bonds with max type 1
  1 angles with max type 1
  0 dihedrals with max type 0
  0 impropers with max type 0
group              h2o type 17 18
3060 atoms in group h2o
group             wall  type < 17
33616 atoms in group wall
group		      ggcmc type 19
1048 atoms in group ggcmc

variable 	      type19 atom "type==19"
group 	            type19 dynamic ggcmc var type19
dynamic group type19 defined
variable          nH2 equal count(type19)
group             bH2 dynamic ggcmc region subbulk every 100
dynamic group bH2 defined
variable          nbH2 equal count(bH2)

compute           mtem type19 temp/com
compute           mwtem h2o temp/com
compute_modify    mtem dynamic/dof yes

neighbor          2.0 bin
neigh_modify      every 10 delay 0 check yes  exclude group wall wall

fix               1  wall nve/noforce  # move linear 0 0 0
fix               2 ggcmc gcmc 100 100 100 19 29494  ${T} 1 0.5 region soall pressure ${Patm} fugacity_coeff ${fe} group ggcmc
fix               2 ggcmc gcmc 100 100 100 19 29494  293.15 1 0.5 region soall pressure ${Patm} fugacity_coeff ${fe} group ggcmc
fix               2 ggcmc gcmc 100 100 100 19 29494  293.15 1 0.5 region soall pressure 148.038490007402 fugacity_coeff ${fe} group ggcmc
fix               2 ggcmc gcmc 100 100 100 19 29494  293.15 1 0.5 region soall pressure 148.038490007402 fugacity_coeff 1.0948 group ggcmc
fix               mynvt h2o nvt temp ${T} ${T} 100
fix               mynvt h2o nvt temp 293.15 ${T} 100
fix               mynvt h2o nvt temp 293.15 293.15 100
fix_modify        mynvt temp mwtem
WARNING: Temperature for fix modify is not for group all (../fix_nh.cpp:1404)
fix               wshake h2o shake 0.0001 50 0 b 1 a 1 mol h2omol
  0 = # of size 2 clusters
  0 = # of size 3 clusters
  0 = # of size 4 clusters
  1020 = # of frozen angles
fix               3 type19 nvt temp ${T}  ${T}  100
fix               3 type19 nvt temp 293.15  ${T}  100
fix               3 type19 nvt temp 293.15  293.15  100
fix_modify        3 temp mtem
WARNING: Temperature for fix modify is not for group all (../fix_nh.cpp:1404)

thermo            1000
thermo_style      custom step c_mtem c_mwtem  pe ke atoms v_nH2 v_nbH2

run               100000
PPPM initialization ...
  using 12-bit tables for long-range coulomb (../kspace.cpp:321)
  G vector (1/distance) = 0.169301
  grid = 40 9 30
  stencil order = 5
  estimated absolute RMS force accuracy = 0.0275672
  estimated relative force accuracy = 8.30179e-05
  using double precision FFTs
  3d grid and FFT values/proc = 2730 720
WARNING: Fix gcmc using full_energy option (../fix_gcmc.cpp:485)
0 atoms in group FixGCMC:gcmc_exclusion_group:2
WARNING: Neighbor exclusions used with KSpace solver may give inconsistent Coulombic energies (../neighbor.cpp:472)
Neighbor list info ...
  update every 10 steps, delay 0 steps, check yes
  max neighbors/atom: 2000, page size: 100000
  master list distance cutoff = 14.5
  ghost atom cutoff = 14.5
  binsize = 7.25, bins = 28 5 20
  1 neighbor lists, perpetual/occasional/extra = 1 0 0
  (1) pair lj/cut/coul/long, perpetual
      attributes: half, newton on
      pair build: half/bin/newton
      stencil: half/bin/3d/newton
      bin: standard
Per MPI rank memory allocation (min/avg/max) = 9.741 | 10.45 | 13.41 Mbytes
Step c_mtem c_mwtem PotEng KinEng Atoms v_nH2 v_nbH2 
       0    287.09958    299.95843   -27544.081    2719.7046    37724         1048          623 
    1000    294.38508    293.54705   -27529.093    2718.9434    37741         1065          615 
    2000    295.34876    286.54772   -27525.402    2685.2593    37748         1072          632 
    3000    287.11078    284.01929   -27585.688    2644.1862    37748         1072          597 
    4000    285.44397    297.80284   -27611.164    2704.6789    37721         1045          606 
    5000    297.29336    301.40704   -27589.126    2810.0714    37780         1104          645 
    6000    286.92543    303.46274   -27549.162    2783.9206    37775         1099          646 
    7000    286.31297    287.91627   -27571.498    2658.5304    37741         1065          628 
    8000    289.45416    296.47028   -27518.673    2731.0569    37753         1077          637 
    9000    295.73935    301.41443   -27561.705    2763.2526    37731         1055          609 
   10000    300.95603    290.59141   -27563.958     2726.986    37747         1071          620 
   11000    305.11592    289.78475   -27492.538    2738.3179    37751         1075          618 
   12000    285.69837    292.35058   -27537.921    2664.7705    37718         1042          575 
   13000    278.46416    304.22345   -27505.543     2733.347    37741         1065          621 
   14000    280.86022    295.68661   -27525.937     2672.236    37719         1043          601 
   15000    276.12656    289.98438   -27625.392    2635.2046    37736         1060          607 
   16000    305.71588    297.80454   -27476.858    2790.8729    37752         1076          620 
   17000    292.49875    299.40834   -27528.299    2727.3651    37715         1039          595 
   18000    300.11634    292.48389   -27563.011    2728.8373    37739         1063          600 
   19000     294.3481    295.50166   -27557.146    2716.4179    37725         1049          606 
   20000    299.15966     292.8438   -27602.383    2678.1165    37683         1007          580 
   21000     283.3927    289.04814   -27602.816    2617.4781    37692         1016          583 
   22000    288.07443    301.89293   -27523.977      2665.74    37644          968          520 
   23000     283.3912    290.33718   -27602.359    2590.1395    37651          975          570 
   24000    305.36811    283.82271   -27536.814    2596.7293    37634          958          554 
   25000    297.52374    284.33962   -27669.051    2605.1113    37665          989          563 
   26000    291.17034    297.16241   -27533.861    2685.0266    37687         1011          571 
   27000    288.80462    290.17726   -27531.786    2635.6444    37688         1012          575 
   28000    300.79326    290.13492   -27573.357    2682.3699    37699         1023          580 
   29000    309.71759    298.16599   -27571.702    2775.0346    37718         1042          585 
   30000    284.91693    296.69615   -27603.016    2692.2398    37722         1046          584 
   31000    300.73716    291.58315   -27516.429    2735.1239    37749         1073          641 
   32000    293.93849     286.3965   -27514.392    2670.5883    37737         1061          590 
   33000    291.50977    300.03935    -27522.31    2733.5622    37724         1048          592 
   34000    288.72066     283.6717   -27510.638    2647.5489    37749         1073          601 
   35000    287.31084    291.31674   -27612.953    2713.7233    37777         1101          637 
   36000    298.21215    295.26984   -27521.008    2784.1228    37785         1109          634 
   37000    298.59726    297.13072   -27530.376    2781.8288    37772         1096          624 
   38000    295.28365    289.25075   -27555.898    2728.6112    37777         1101          606 
   39000    275.71494     290.9216   -27462.209    2665.6472    37767         1091          595 
   40000    288.58001    297.70131   -27486.028    2732.6861    37746         1070          576 
   41000     298.2602    293.13722   -27480.396    2719.0618    37730         1054          591 
   42000    297.83865    300.66336   -27467.575    2781.8867    37751         1075          603 
   43000    286.78484    295.87632   -27620.674    2720.7836    37755         1079          599 
   44000    285.21429    294.74456   -27539.481    2700.8649    37743         1067          585 
   45000    287.80023    287.65651    -27430.26    2668.4741    37745         1069          602 
   46000    301.42543    292.53505   -27564.986    2765.7084    37775         1099          624 
   47000     284.1385    295.37074   -27596.294    2688.3395    37729         1053          607 
   48000    290.56524    290.67676   -27549.492    2686.8473    37736         1060          627 
   49000    295.64337    296.86095   -27560.786    2736.5554    37734         1058          583 
   50000     295.7441    291.20697   -27511.528    2694.7344    37725         1049          588 
   51000    287.23857    288.70902   -27504.016    2653.7736    37726         1050          613 
   52000    299.06353    295.42076   -27565.475    2737.8746    37732         1056          578 
   53000    295.75261    293.51888   -27439.499    2723.6149    37741         1065          617 
   54000    290.28048    291.54468   -27537.942    2672.2722    37715         1039          596 
   55000     293.3831    292.43267   -27511.771     2727.788    37763         1087          614 
   56000    291.40069    294.50201   -27612.029    2746.5424    37776         1100          619 
   57000    282.68649     286.1621   -27578.619    2637.8278    37742         1066          618 
   58000    284.12964    290.44463   -27607.675    2685.0925    37759         1083          644 
   59000    282.52469    287.31962   -27555.402    2668.5322    37769         1093          666 
   60000    287.51613    280.59013   -27584.495    2618.1781    37741         1065          598 
   61000    300.26911    285.30938   -27548.279    2694.0463    37749         1073          618 
   62000    293.55544    289.14115   -27504.244     2687.096    37738         1062          610 
   63000    277.62495    295.54863   -27538.103    2690.8125    37756         1080          606 
   64000    291.18177    291.40855   -27506.046    2696.4535    37741         1065          597 
   65000    294.06753    286.67293   -27527.877    2652.0674    37709         1033          573 
   66000     300.5501    298.64338   -27487.501    2796.7138    37767         1091          628 
   67000    287.95902    293.52447   -27391.063    2700.5221    37739         1063          618 
   68000    279.50023    293.29713   -27453.289    2668.9537    37740         1064          599 
   69000    286.09042    292.65803   -27584.289    2670.8349    37722         1046          581 
   70000    293.46752    301.39142   -27471.665     2738.885    37713         1037          592 
   71000    310.86116    289.25068   -27507.047    2744.3264    37739         1063          587 
   72000    294.04074    303.68763   -27510.377    2745.4781    37702         1026          598 
   73000    282.62437    286.28365   -27575.096    2628.1212    37730         1054          594 
   74000    298.32779    297.41863   -27694.783    2731.4352    37715         1039          592 
   75000    294.75608    283.98491    -27599.51    2649.3468    37727         1051          616 
   76000    300.56378    287.14026   -27575.668    2669.6747    37707         1031          588 
   77000    277.91834    295.55255   -27638.721    2669.8962    37728         1052          596 
   78000    285.61378     299.4445   -27578.778    2698.0907    37707         1031          590 
   79000    283.90735    301.25351   -27602.458    2749.5002    37761         1085          628 
   80000    299.14357    288.43212   -27527.902    2686.9968    37724         1048          612 
   81000    289.82916    286.63807   -27524.241    2645.0066    37721         1045          588 
   82000    288.21933    285.45009   -27558.726    2637.1648    37726         1050          600 
   83000     295.2717    289.40418   -27566.343    2669.0256    37710         1034          585 
   84000    281.09006    293.54498    -27566.94    2660.8451    37722         1046          605 
   85000    289.64791    291.83799   -27596.171    2655.7129    37697         1021          598 
   86000    302.58531    285.71705   -27518.915    2653.4038    37693         1017          594 
   87000    312.38095    294.57453   -27569.488    2722.5589    37677         1001          574 
   88000    282.73867    292.52508   -27519.867     2640.834    37700         1024          604 
   89000    294.57195    299.14201   -27465.891    2714.8411    37697         1021          580 
   90000    310.05185    301.38416   -27467.745    2777.5723    37699         1023          578 
   91000    294.83187    292.73294   -27523.089    2698.7834    37723         1047          604 
   92000    281.91927    283.21182   -27543.468    2584.2709    37700         1024          581 
   93000    296.69849    282.97217   -27631.484     2656.238    37734         1058          613 
   94000    290.67212    295.24978   -27534.323    2735.7614    37762         1086          638 
   95000    301.67401    288.74602   -27569.197    2727.2728    37757         1081          616 
   96000    292.55938    295.03097   -27594.167    2713.1564    37731         1055          620 
   97000    284.17764    286.61354   -27570.941    2658.4793    37757         1081          633 
   98000    297.25919    294.23806   -27442.981    2710.5982    37714         1038          564 
   99000    316.99186    291.62037   -27523.449    2766.4613    37726         1050          577 
  100000    299.69293    293.46461   -27519.578    2720.4169    37724         1048          589 
Loop time of 20312.4 on 15 procs for 100000 steps with 37724 atoms

Performance: 0.425 ns/day, 56.423 hours/ns, 4.923 timesteps/s
92.9% CPU use with 15 MPI tasks x no OpenMP threads

MPI task timing breakdown:
Section |  min time  |  avg time  |  max time  |%varavg| %total
---------------------------------------------------------------
Pair    | 15.69      | 232.41     | 1856.7     |3080.7 |  1.14
Bond    | 0.02242    | 0.029541   | 0.035874   |   2.1 |  0.00
Kspace  | 122.45     | 1752.1     | 1989.5     |1128.1 |  8.63
Neigh   | 234.51     | 234.91     | 235.53     |   1.7 |  1.16
Comm    | 26.304     | 51.433     | 108.61     | 442.2 |  0.25
Output  | 0.013891   | 0.014397   | 0.01986    |   1.2 |  0.00
Modify  | 18037      | 18039      | 18044      |   1.6 | 88.81
Other   |            | 1.97       |            |       |  0.01

Nlocal:    2514.93 ave 3622 max 175 min
Histogram: 3 0 1 0 0 1 0 0 0 10
Nghost:    9821.13 ave 13002 max 8733 min
Histogram: 10 1 0 0 0 0 1 0 1 2
Neighs:    121232 ave 821544 max 5935 min
Histogram: 11 1 0 1 1 0 0 0 0 1

Total # of neighbors = 1818480
Ave neighs/atom = 48.2049
Ave special neighs/atom = 0.162231
Neighbor list builds = 205227
Dangerous builds = 0
write_data        C100_H2_1020watergcmc1.1ns.data
PPPM initialization ...
  using 12-bit tables for long-range coulomb (../kspace.cpp:321)
  G vector (1/distance) = 0.169301
  grid = 40 9 30
  stencil order = 5
  estimated absolute RMS force accuracy = 0.0275672
  estimated relative force accuracy = 8.30179e-05
  using double precision FFTs
  3d grid and FFT values/proc = 2730 720
WARNING: Neighbor exclusions used with KSpace solver may give inconsistent Coulombic energies (../neighbor.cpp:472)
run               200000
PPPM initialization ...
  using 12-bit tables for long-range coulomb (../kspace.cpp:321)
  G vector (1/distance) = 0.169301
  grid = 40 9 30
  stencil order = 5
  estimated absolute RMS force accuracy = 0.0275672
  estimated relative force accuracy = 8.30179e-05
  using double precision FFTs
  3d grid and FFT values/proc = 2730 720
WARNING: Neighbor exclusions used with KSpace solver may give inconsistent Coulombic energies (../neighbor.cpp:472)
Per MPI rank memory allocation (min/avg/max) = 9.933 | 10.72 | 13.98 Mbytes
Step c_mtem c_mwtem PotEng KinEng Atoms v_nH2 v_nbH2 
  100000    299.69293    293.46461   -27519.578    2720.4169    37724         1048          589 
  101000    301.61766    291.34405   -27597.904    2741.1414    37754         1078          621 
  102000    295.70165    293.99947   -27608.575    2757.4873    37777         1101          628 
  103000    299.68968    295.73792   -27552.658    2736.6775    37727         1051          599 
  104000    290.32746    295.25689   -27527.813    2689.6269    37710         1034          596 
  105000    293.12835    285.02514   -27518.372    2652.5429    37728         1052          609 
  106000    306.82008     293.5161   -27520.124    2761.0583    37744         1068          606 
  107000    296.06477     288.8255   -27589.108    2691.5445    37735         1059          592 
  108000    290.85151    295.70599   -27632.533    2750.9595    37774         1098          615 
  109000     294.0171    290.95671   -27551.317    2724.8922    37767         1091          638 
  110000    294.30057    289.58083   -27533.201    2723.0477    37773         1097          634 
  111000    302.23524    298.51294   -27586.868    2749.8537    37714         1038          583 
  112000    307.87155    304.24717   -27547.526    2797.9153    37708         1032          587 
  113000    289.71795    302.92187   -27530.759    2760.4684    37739         1063          628 
  114000     292.5258    297.42272   -27530.171    2742.8472    37746         1070          611 
  115000    286.83054    292.76914   -27569.826    2690.9696    37740         1064          626 
  116000     277.3272    299.33094   -27588.907    2665.9111    37697         1021          543 
  117000    294.68295    301.16191   -27616.779    2742.4385    37713         1037          585 
  118000    295.83223    295.69655   -27505.176    2699.2223    37699         1023          574 
  119000    287.30654     296.1318   -27560.544    2706.7242    37733         1057          577 
  120000    290.65029    293.93127   -27400.922    2705.5101    37735         1059          606 
  121000    295.51516    296.91169   -27509.411    2742.7918    37740         1064          601 
  122000    300.18153    300.57852   -27595.775     2761.672    37721         1045          583 
  123000    297.27751    293.22383   -27602.713    2699.2394    37711         1035          578 
  124000    291.09545    286.88792   -27455.226    2624.9432    37691         1015          597 
  125000    301.50702    285.91653   -27548.218    2650.3142    37691         1015          579 
  126000    297.53787    294.38904   -27566.432    2703.9276    37705         1029          592 
  127000    277.60448    284.90787   -27648.643    2590.4655    37712         1036          626 
  128000    287.69493    298.27101   -27523.043    2704.8555    37716         1040          608 
  129000    294.68014     301.9874   -27469.852    2736.8779    37701         1025          580 
  130000    296.55681    284.40851   -27502.909    2635.9753    37703         1027          583 
  131000    274.91342    291.31285   -27538.261    2614.0073    37705         1029          591 
  132000    292.10179    285.88972   -27611.113    2645.6358    37719         1043          591 
  133000    300.74116    294.75304   -27548.326    2740.5183    37733         1057          587 
  134000    280.99131    284.94734   -27568.746    2659.0881    37782         1106          606 
  135000    296.22925    289.27495   -27672.595    2714.0055    37758         1082          627 
  136000    297.85941    287.77451   -27516.414     2703.549    37751         1075          628 
  137000    299.94282    295.09652   -27578.729    2750.5447    37745         1069          590 
  138000    289.71079    299.43576   -27528.712    2754.4103    37756         1080          609 
  139000    288.98198    287.14085    -27523.91    2672.0358    37752         1076          599 
  140000    290.68613    297.97538   -27466.745    2755.2984    37765         1089          638 
  141000    290.93904    285.46619   -27524.427    2631.9964    37711         1035          588 
  142000    294.08349    293.71548   -27535.109    2676.0685    37692         1016          579 
  143000    293.73191      292.733   -27450.825    2668.3689    37692         1016          576 
  144000    283.68458     292.0572    -27522.32    2681.5349    37748         1072          595 
  145000    285.84591    305.33522   -27578.878    2731.7942    37704         1028          568 
  146000    301.35998    287.36356   -27544.653    2654.7467    37687         1011          557 
  147000    293.01404    298.65662   -27518.666    2736.2682    37731         1055          615 
  148000    303.41941    294.25148   -27515.229    2753.2248    37742         1066          614 
  149000    294.05369    300.73559   -27605.414    2745.7967    37722         1046          586 
  150000    282.38842    299.07878    -27581.55    2713.6599    37739         1063          601 
  151000    303.34411    299.85153   -27466.544    2759.4147    37711         1035          577 
  152000    295.91832    293.10312   -27492.361    2720.1575    37740         1064          590 
  153000    282.65114    287.44126   -27542.458    2638.7472    37735         1059          595 
  154000     290.7213    300.14018   -27486.498    2714.4148    37703         1027          587 
  155000    305.98476     290.1304   -27587.979    2721.1587    37725         1049          606 
  156000    298.78983    293.07491   -27483.088    2743.9888    37754         1078          636 
  157000    290.36279    293.53823   -27500.961    2708.5554    37743         1067          604 
  158000    288.14584    283.31896   -27515.944    2648.9786    37754         1078          625 
  159000    284.57579    284.86134   -27534.937    2629.4906    37734         1058          576 
  160000    287.35346    294.47342   -27623.702    2705.4766    37745         1069          613 
  161000    300.03202    288.68093   -27532.918     2699.606    37730         1054          586 
  162000    305.70393    295.34422   -27571.142    2726.6275    37699         1023          587 
  163000    300.04165    286.39538   -27534.202    2687.7923    37734         1058          594 
  164000    285.62399    299.11635   -27653.897    2696.4044    37706         1030          553 
  165000     290.7057    294.43085   -27608.539    2693.1939    37717         1041          598 
  166000    298.85381     294.5292   -27543.028    2735.1209    37737         1061          585 
  167000    281.88979    294.32708   -27551.574         2680    37735         1059          583 
  168000    285.85346    297.11923   -27508.385    2744.1912    37776         1100          621 
  169000    297.05556    296.64848   -27616.161    2762.8598    37758         1082          620 
  170000     295.2703    293.08867   -27472.374    2727.6758    37750         1074          585 
  171000    292.77177    299.11853   -27525.074    2764.7385    37760         1084          602 
  172000    290.78556    275.04161   -27407.217    2592.2206    37738         1062          584 
  173000    291.58929    290.74938   -27553.817    2678.1605    37724         1048          594 
  174000    300.09869    290.74222   -27526.138    2736.2454    37759         1083          611 
  175000    285.75654      281.453   -27555.889    2613.9133    37736         1060          577 
  176000    296.36926    299.92927    -27542.62    2768.0587    37745         1069          591 
  177000    292.35139     293.2927   -27503.512    2692.2572    37717         1041          604 
  178000     282.1014    296.58991   -27573.459    2656.5806    37688         1012          575 
  179000    301.24551    293.35014   -27596.465    2675.0267    37668          992          562 
  180000    289.84037    291.35196   -27559.136    2666.0376    37711         1035          594 
  181000    298.37147    295.78386   -27573.291     2726.717    37720         1044          590 
  182000    295.79453    303.92321    -27527.31    2779.0762    37733         1057          610 
  183000    295.92973    298.36962   -27604.881    2753.4537    37741         1065          584 
  184000    284.61805     288.7371   -27578.424     2641.218    37719         1043          586 
  185000    283.44492    290.79889   -27590.461    2630.5104    37696         1020          556 
  186000    290.15421    302.94659    -27469.64    2748.2097    37724         1048          597 
  187000    296.82442    293.30766   -27550.943     2760.839    37782         1106          636 
  188000    280.98937    294.75338   -27547.565    2703.3865    37764         1088          601 
  189000    282.34643    290.47075   -27608.695    2690.2221    37774         1098          618 
  190000    295.27301    296.17313   -27523.139    2736.8815    37739         1063          592 
  191000     296.8277    287.79309   -27534.834    2700.0659    37750         1074          594 
  192000    299.97169    290.15748   -27541.811    2751.1231    37780         1104          629 
  193000    304.40257    293.15566   -27533.335    2766.2106    37760         1084          623 
  194000     288.3134    296.13264   -27527.956    2733.1558    37760         1084          628 
  195000    305.89976    288.49006   -27567.164    2742.9652    37758         1082          606 
  196000     300.3055    299.05597   -27591.407     2770.381    37739         1063          601 
  197000    279.98579    289.26975   -27487.729    2629.9154    37720         1044          576 
  198000    287.56946    293.18163   -27578.143    2670.1098    37710         1034          571 
  199000    289.22555    295.94567   -27558.774    2694.1832    37713         1037          558 
  200000    299.45922    298.82321   -27566.738    2759.9044    37732         1056          589 
  201000    284.13901    292.37013   -27568.541    2674.1092    37734         1058          598 
  202000    288.38075    290.32024   -27516.214    2705.3712    37770         1094          620 
  203000    296.36343    296.58687   -27522.121    2782.8685    37785         1109          625 
  204000    295.17532    294.42519   -27475.301    2725.8367    37737         1061          599 
  205000    303.93766    292.42219   -27519.114    2748.6114    37748         1072          612 
  206000    295.30668    292.07138   -27614.741    2715.1531    37741         1065          594 
  207000    296.51823     297.9419   -27553.223    2742.1835    37730         1054          601 
  208000    291.86792     298.3075   -27484.108    2739.8856    37742         1066          621 
  209000     295.6268    288.07727   -27573.213    2660.0421    37707         1031          558 
  210000    308.49858    297.69468    -27510.24    2797.9329    37751         1075          608 
  211000    289.25755    289.72995   -27571.084    2727.4527    37796         1120          635 
  212000    295.52257    294.87616   -27491.194     2751.414    37763         1087          605 
  213000    299.08661    296.20149   -27603.631    2770.4324    37764         1088          606 
  214000    298.38946    295.74141   -27592.833    2804.5061    37808         1132          641 
  215000    290.98686    285.73055   -27565.229    2675.3816    37758         1082          613 
  216000    300.31653    286.74142   -27535.601    2743.4954    37793         1117          640 
  217000    301.93334    305.20273   -27586.777    2853.1376    37785         1109          649 
  218000    290.56253    289.28053   -27527.395    2672.0318    37730         1054          570 
  219000     287.2429    288.31377   -27612.572    2629.9041    37699         1023          566 
  220000    290.49611    288.18617   -27493.763    2644.1597    37704         1028          582 
  221000    306.80094    294.77805   -27664.922    2741.5921    37713         1037          585 
  222000    286.55798    293.93755    -27576.78    2663.6499    37702         1026          591 
  223000    295.60094    293.98916   -27605.981    2679.9988    37690         1014          586 
  224000    296.03442     290.1342   -27512.136    2696.6074    37731         1055          621 
  225000    302.20733    290.62204   -27564.356    2729.7969    37743         1067          592 
  226000    299.11273     297.4187   -27592.045    2732.3253    37713         1037          570 
  227000    286.31399    294.68209   -27582.025    2693.9634    37733         1057          585 
  228000    291.36836    291.88065   -27608.648    2693.4642    37734         1058          600 
  229000    289.18536    290.28225   -27550.767    2690.9947    37751         1075          615 
  230000       298.85     290.0259   -27512.607    2708.7146    37738         1062          589 
  231000    299.02192    299.19489   -27524.748    2758.8057    37731         1055          585 
  232000    287.35884    298.95204   -27471.918    2725.7081    37737         1061          589 
  233000    310.23032    289.28541   -27594.801    2749.3256    37747         1071          596 
  234000     293.8981    293.42353   -27471.109    2727.6327    37754         1078          614 
  235000    292.21744    287.37338   -27613.903    2671.3405    37737         1061          607 
  236000    295.95265    299.23993   -27552.014    2719.7232    37696         1020          569 
  237000    298.44063    284.28621   -27516.645    2649.7767    37711         1035          583 
  238000    285.20883     295.3616   -27559.841    2702.6717    37744         1068          623 
  239000    298.47662    293.47872   -27435.754    2724.8523    37733         1057          624 
  240000    309.98917    303.08965   -27484.381      2792.36    37703         1027          559 
  241000    303.44302    296.09518   -27484.179    2750.7956    37727         1051          591 
  242000    296.07595    290.05227   -27531.128    2676.0316    37710         1034          572 
  243000     278.6214    289.51456   -27439.829    2612.9798    37703         1027          607 
  244000    296.26214    299.37345   -27528.977    2734.8122    37711         1035          587 
  245000    291.95715    291.73578    -27527.58    2675.4703    37713         1037          578 
  246000    297.28148    288.39861   -27664.657    2662.6428    37703         1027          560 
  247000    289.71022    290.49485   -27585.676    2647.1204    37697         1021          550 
  248000    293.67765    303.55199   -27596.715    2757.2463    37717         1041          596 
  249000    304.96487    303.90972   -27555.721    2832.3924    37758         1082          642 
  250000    285.78496    287.26426   -27544.339    2646.8091    37734         1058          624 
  251000    289.57855    290.95706   -27494.481    2676.7931    37728         1052          607 
  252000    289.65486    300.72894    -27529.56    2720.4485    37709         1033          585 
  253000    292.98593    291.65011   -27494.826    2709.4535    37748         1072          599 
  254000    309.65382    298.74936    -27587.44    2797.6506    37739         1063          607 
  255000    293.59529    294.57981   -27655.432    2717.2706    37734         1058          596 
  256000    288.62901    293.82303   -27657.351    2691.2056    37728         1052          573 
  257000    296.30197    288.66097   -27607.363    2687.4018    37732         1056          592 
  258000    296.00821    284.33514   -27630.974    2661.5839    37734         1058          574 
  259000    298.81245    298.45065   -27593.166    2767.8735    37747         1071          587 
  260000    303.02307    283.85909   -27575.868    2679.3744    37732         1056          602 
  261000    285.50151    298.63379   -27470.977    2695.7259    37710         1034          594 
  262000    287.37139    285.15526   -27585.373    2646.1501    37742         1066          607 
  263000    291.21332    292.57048   -27520.083    2712.0209    37751         1075          624 
  264000    300.10725    286.25291   -27518.737     2688.321    37737         1061          573 
  265000    287.02273    288.41719   -27486.949    2663.3052    37739         1063          590 
  266000    293.04157    282.25646   -27474.831    2654.5857    37750         1074          614 
  267000     282.3529    300.86525   -27477.975    2756.3992    37778         1102          627 
  268000    285.07953    298.64351    -27508.01    2725.6355    37746         1070          596 
  269000    301.33335    290.56873   -27578.703    2742.0658    37761         1085          627 
  270000    296.28918    295.12138   -27523.138    2753.1281    37761         1085          624 
  271000    300.52651    287.62828   -27589.554    2713.1067    37751         1075          626 
  272000    279.14247    292.07891   -27610.045    2662.5411    37739         1063          582 
  273000    296.90586    282.73283   -27486.457    2644.4677    37722         1046          600 
  274000    301.05672    294.17142   -27606.164    2706.8493    37700         1024          544 
  275000    303.40219    293.62099   -27557.526    2742.7946    37734         1058          597 
  276000    283.45121    296.82009   -27594.626    2698.1298    37732         1056          606 
  277000    299.23671    291.26035   -27568.942    2723.5894    37743         1067          591 
  278000    293.91947    292.58363   -27485.967    2660.9806    37682         1006          565 
  279000     286.6444      295.811   -27515.418    2665.6187    37691         1015          571 
  280000    303.22786    302.33943   -27503.593    2789.5475    37729         1053          601 
  281000    293.16619    293.83578   -27498.971    2704.2666    37726         1050          579 
  282000    296.80069     291.1952   -27580.808    2671.3191    37695         1019          555 
  283000    305.21696    300.00913   -27615.409    2754.7262    37699         1023          592 
  284000    304.38229    296.68046   -27692.036    2733.2091    37701         1025          581 
  285000    275.77098    292.97398    -27588.42    2618.6904    37696         1020          584 
  286000    294.60321    306.53141   -27662.839    2745.8956    37681         1005          549 
  287000    295.53703    295.95492   -27561.439    2685.5164    37681         1005          565 
  288000    296.77187    288.60866   -27542.324    2670.9569    37712         1036          594 
  289000    306.07065    282.25782   -27611.976    2666.3612    37717         1041          591 
  290000    298.54841    295.77921   -27553.261    2700.2458    37685         1009          567 
  291000    287.47721    294.13838   -27547.098    2675.5786    37712         1036          585 
  292000    304.66062    283.63353   -27582.349    2670.8894    37717         1041          596 
  293000    293.14537    296.17699   -27501.834    2691.4378    37696         1020          575 
  294000    281.11128    290.74225   -27632.125     2634.379    37710         1034          593 
  295000    283.52773    286.68587   -27551.704    2613.1745    37705         1029          583 
  296000    284.69926    297.49657   -27530.571    2669.9299    37690         1014          565 
  297000    293.16441    297.54806   -27566.686    2714.4069    37710         1034          584 
  298000    303.91287    286.51271    -27443.64    2669.2812    37697         1021          577 
  299000    290.50327    297.64508   -27448.511    2734.9919    37743         1067          612 
  300000    290.72956    299.26062   -27551.515    2741.6996    37739         1063          612 
Loop time of 43376.1 on 15 procs for 200000 steps with 37739 atoms

Performance: 0.398 ns/day, 60.245 hours/ns, 4.611 timesteps/s
92.7% CPU use with 15 MPI tasks x no OpenMP threads

MPI task timing breakdown:
Section |  min time  |  avg time  |  max time  |%varavg| %total
---------------------------------------------------------------
Pair    | 36.139     | 493.34     | 3971       |4519.5 |  1.14
Bond    | 0.048129   | 0.063876   | 0.076263   |   3.0 |  0.00
Kspace  | 260.74     | 3751.6     | 4249.2     |1649.1 |  8.65
Neigh   | 494.74     | 495.72     | 496.77     |   2.4 |  1.14
Comm    | 51.776     | 104.93     | 223.32     | 655.9 |  0.24
Output  | 0.027551   | 0.028234   | 0.034167   |   0.9 |  0.00
Modify  | 38521      | 38526      | 38534      |   2.1 | 88.82
Other   |            | 4.571      |            |       |  0.01

Nlocal:    2515.93 ave 3610 max 196 min
Histogram: 3 1 0 0 0 1 0 0 0 10
Nghost:    9773.67 ave 12741 max 8695 min
Histogram: 10 1 0 0 0 1 0 0 1 2
Neighs:    118912 ave 933189 max 7089 min
Histogram: 11 1 1 1 0 0 0 0 0 1

Total # of neighbors = 1783678
Ave neighs/atom = 47.2635
Ave special neighs/atom = 0.162166
Neighbor list builds = 410459
Dangerous builds = 0
write_data        C100_H2_1020watergcmc1.3ns.data
PPPM initialization ...
  using 12-bit tables for long-range coulomb (../kspace.cpp:321)
  G vector (1/distance) = 0.169301
  grid = 40 9 30
  stencil order = 5
  estimated absolute RMS force accuracy = 0.0275617
  estimated relative force accuracy = 8.30014e-05
  using double precision FFTs
  3d grid and FFT values/proc = 2730 720
WARNING: Neighbor exclusions used with KSpace solver may give inconsistent Coulombic energies (../neighbor.cpp:472)
run               200000
PPPM initialization ...
  using 12-bit tables for long-range coulomb (../kspace.cpp:321)
  G vector (1/distance) = 0.169301
  grid = 40 9 30
  stencil order = 5
  estimated absolute RMS force accuracy = 0.0275617
  estimated relative force accuracy = 8.30014e-05
  using double precision FFTs
  3d grid and FFT values/proc = 2730 720
WARNING: Neighbor exclusions used with KSpace solver may give inconsistent Coulombic energies (../neighbor.cpp:472)
Per MPI rank memory allocation (min/avg/max) = 10.19 | 11.01 | 14.24 Mbytes
Step c_mtem c_mwtem PotEng KinEng Atoms v_nH2 v_nbH2 
  300000    290.72956    299.26062   -27551.515    2741.6996    37739         1063          614 
  301000    291.59452    285.63053   -27598.584    2685.9771    37765         1089          643 
  302000    297.71858    295.11226   -27614.503     2705.636    37698         1022          585 
  303000     293.2262     296.4874   -27562.434    2690.6892    37691         1015          569 
  304000     294.0578    286.18643   -27561.863    2620.6755    37680         1004          556 
  305000    301.72374     290.8018   -27578.531    2673.7964    37683         1007          553 
  306000    306.33706    298.41954   -27529.541    2780.1459    37732         1056          590 
  307000    286.64176    295.16694    -27552.64      2698.01    37731         1055          608 
  308000    291.27715    293.92172   -27557.074    2687.3718    37710         1034          593 
  309000    301.80803    287.99767    -27500.24    2650.4819    37675          999          558 
  310000     287.6624    295.64167   -27528.395    2674.3052    37699         1023          575 
  311000    291.83585     296.1255   -27585.959    2677.4818    37683         1007          573 
  312000    290.89136    291.70593   -27511.695    2655.8563    37693         1017          569 
  313000    301.85349    281.39097   -27616.854     2631.005    37698         1022          586 
  314000    291.00175    302.04602   -27468.756    2703.7541    37676         1000          572 
  315000    286.15143     291.3304   -27483.851    2642.0382    37697         1021          611 
  316000    292.63977    292.11347   -27462.879    2694.2093    37728         1052          600 
  317000    292.41079    296.67027   -27547.556    2674.7593    37674          998          571 
  318000    294.45009    302.02436   -27462.882    2727.3845    37691         1015          568 
  319000    297.94726    294.17154   -27470.554    2698.1695    37700         1024          584 
  320000    302.50939    300.58559   -27454.618    2733.5112    37681         1005          548 
  321000    287.47729    291.96343   -27595.394    2688.4228    37742         1066          631 
  322000    293.40417    295.00785   -27604.609    2718.7526    37734         1058          607 
  323000     287.7158    299.96462   -27571.436    2741.0478    37746         1070          588 
  324000    293.15933    294.86571   -27597.683    2723.3785    37740         1064          604 
  325000    292.81302    302.40082   -27523.288    2765.3404    37739         1063          618 
  326000    290.05575    290.15454   -27595.938    2718.0739    37778         1102          619 
  327000    302.10116    288.83286   -27637.886    2746.8317    37775         1099          595 
  328000    293.96951    295.08409   -27605.892    2767.4604    37788         1112          652 
  329000    288.77608    297.97131   -27607.921    2727.8765    37741         1065          613 
  330000    303.87972    292.82468   -27530.008    2768.6042    37766         1090          625 
  331000    299.34822    290.20674   -27609.115    2696.2538    37720         1044          589 
  332000    303.41235    297.25724   -27539.688    2766.9715    37737         1061          626 
  333000    299.44273    296.55192   -27605.081    2733.3657    37718         1042          612 
  334000    300.32539    296.25816    -27538.59    2734.4764    37717         1041          590 
  335000    295.06865    282.80533   -27518.493    2636.6186    37719         1043          593 
  336000    277.23774    293.22817   -27608.814    2685.9117    37767         1091          619 
  337000    293.43591    293.95957   -27580.553    2702.5679    37722         1046          569 
  338000    290.70992    303.15859   -27539.769    2776.1776    37750         1074          605 
  339000    305.13348    295.03552   -27658.416    2770.1677    37750         1074          584 
  340000    303.76762    290.81338   -27581.508    2729.1958    37736         1060          574 
  341000    283.68597    303.14792   -27504.948    2810.4044    37818         1142          648 
  342000    297.90792    283.48157   -27580.586    2730.9877    37810         1134          641 
  343000    302.19176    298.91625   -27481.909    2806.2206    37775         1099          619 
  344000    297.53343    292.90884   -27536.507     2748.293    37766         1090          598 
  345000    289.27704    293.98404    -27596.54    2697.1519    37732         1056          582 
  346000    293.19297    288.02653   -27485.473    2666.2572    37723         1047          584 
  347000    306.04588    298.77836   -27571.453    2771.5371    37723         1047          556 
  348000    287.74518    297.02018   -27460.768    2723.5983    37747         1071          602 
  349000    286.01113    290.10364   -27577.508    2668.6362    37738         1062          620 
  350000    296.52826    292.06397   -27569.402    2729.6267    37756         1080          633 
  351000     302.1182    299.86824   -27569.059    2782.5449    37741         1065          617 
  352000    290.81493    296.60899   -27515.984    2718.5286    37732         1056          593 
  353000    287.83539    295.94102   -27538.769    2710.5915    37739         1063          603 
  354000    287.86443    297.12346   -27480.116    2703.3815    37720         1044          599 
  355000    289.55769    290.12171   -27514.008     2681.121    37739         1063          593 
  356000    297.06584    292.54808   -27610.406    2697.3948    37714         1038          579 
  357000    307.23065    296.91926    -27633.34    2776.6088    37736         1060          606 
  358000    292.44199    287.52136   -27577.288    2683.2501    37750         1074          608 
  359000    281.95099    290.30329   -27607.945    2666.7285    37749         1073          623 
  360000    287.25994    301.07903    -27582.89    2722.5586    37719         1043          585 
  361000    296.90166    300.15326   -27620.687     2773.373    37748         1072          599 
  362000    282.45225    296.62312   -27542.901    2720.3696    37766         1090          629 
  363000    294.80164    294.17956   -27583.345    2764.6885    37786         1110          612 
  364000    293.45611    298.54407   -27482.637    2776.7481    37773         1097          610 
  365000    287.91656    299.74264   -27511.851     2758.405    37767         1091          609 
  366000    283.15148    296.20498   -27611.991    2715.6879    37759         1083          620 
  367000     291.7067    284.01797   -27533.914    2673.3266    37765         1089          584 
  368000    299.53696    292.30759     -27635.4    2740.3154    37754         1078          607 
  369000    286.49228     292.4034   -27561.991    2697.0164    37750         1074          590 
  370000    295.41646    284.58978   -27509.775    2727.1349    37805         1129          629 
  371000    299.52873    294.68554    -27500.43    2809.8187    37813         1137          651 
  372000    300.20767    292.88951   -27524.313    2781.8595    37794         1118          633 
  373000    285.17082    294.42331   -27537.812    2711.2011    37760         1084          595 
  374000    300.09707    297.58804   -27500.333    2764.1185    37744         1068          587 
  375000    287.01002    298.90789   -27534.674    2738.1008    37752         1076          605 
  376000    293.05596    290.82688   -27595.705    2698.3405    37739         1063          613 
  377000    304.37288    298.03465   -27523.244    2768.9849    37731         1055          598 
  378000    297.29547    289.97492    -27583.27    2723.4741    37760         1084          609 
  379000    292.12275    298.08381   -27546.996    2722.4006    37721         1045          580 
  380000    288.42139    299.44179   -27545.319    2703.3207    37703         1027          586 
  381000    297.01524    302.73798   -27559.196    2745.7647    37698         1022          578 
  382000    296.79549    288.65936   -27471.244    2650.7688    37688         1012          586 
  383000    288.98591    293.11778   -27639.168    2651.3225    37684         1008          586 
  384000    285.11089    295.49027   -27543.841     2639.199    37666          990          546 
  385000     296.8313    296.57643   -27469.106    2710.0396    37702         1026          583 
  386000    282.39132    291.82308   -27587.432    2642.8405    37706         1030          581 
  387000    302.25623    291.05283   -27559.337    2731.4589    37743         1067          620 
  388000    290.69772    296.24577   -27585.057    2736.2534    37756         1080          620 
  389000    300.12883    288.92296   -27543.771    2708.3154    37741         1065          591 
  390000    295.29768    297.79875   -27582.484    2739.2071    37731         1055          617 
  391000     291.7497    297.70873   -27517.294    2741.1787    37747         1071          614 
  392000    280.96625    291.56653   -27565.021    2668.3017    37746         1070          580 
  393000    294.32325     286.7795   -27557.199      2682.35    37747         1071          598 
  394000    300.72652    290.57399   -27491.552    2716.0765    37734         1058          597 
  395000    293.19863    302.86502   -27457.663    2753.8385    37718         1042          568 
  396000    292.11653    297.41974   -27467.386    2722.4995    37725         1049          584 
  397000    289.53539    297.01469   -27483.169    2734.3023    37752         1076          621 
  398000    298.74015    288.78107   -27491.752    2707.0247    37743         1067          572 
  399000     313.1507    286.78203   -27426.364    2727.4635    37731         1055          595 
  400000    292.07819    292.71229     -27474.1    2677.1673    37707         1031          610 
  401000    293.47257    294.80096   -27458.006    2668.0567    37677         1001          544 
  402000    307.62508    292.35747   -27499.627    2700.0361    37682         1006          580 
  403000    302.31441    292.44234   -27458.102    2728.7439    37731         1055          593 
  404000    297.36101    296.34508   -27529.142    2739.2496    37735         1059          618 
  405000    293.70034    298.77511   -27516.092    2741.8317    37734         1058          604 
  406000    292.91236    290.61989   -27607.267    2718.9521    37767         1091          589 
  407000    293.46895    293.26254   -27565.276    2704.1603    37730         1054          590 
  408000    299.64559    294.60319   -27561.854    2735.5523    37734         1058          615 
  409000    292.24958     288.6058   -27569.584    2611.7192    37660          984          547 
  410000    272.48315    293.43363   -27538.977    2588.0304    37666          990          576 
  411000    290.92569    291.37412   -27546.456    2658.9993    37699         1023          596 
  412000    286.36744    293.58406   -27543.058     2670.168    37712         1036          565 
  413000    294.38221    293.64808   -27554.088     2729.109    37752         1076          607 
  414000     294.8604    291.78392    -27544.29     2700.634    37731         1055          574 
  415000    293.92252    299.76971   -27516.503     2756.564    37743         1067          606 
  416000    291.90466    295.38699   -27502.833    2721.8542    37741         1065          609 
  417000    298.86559    292.50409   -27512.014    2693.3691    37704         1028          558 
  418000    285.22423    304.73396   -27572.138    2760.8891    37745         1069          615 
  419000    285.56063    291.39571    -27395.88     2678.423    37741         1065          590 
  420000    290.06051    292.94784   -27589.179    2694.9397    37732         1056          574 
  421000     299.9523    294.03114   -27536.797    2714.4206    37712         1036          573 
  422000    289.79767    291.94788   -27516.456     2683.592    37728         1052          610 
  423000    280.43202     293.5179    -27476.96    2694.3606    37764         1088          592 
  424000    286.28749    294.87887   -27403.225    2713.0343    37755         1079          607 
  425000    285.75684    295.23229   -27604.281    2708.3952    37748         1072          623 
  426000    293.77642    287.17378   -27524.161    2667.1707    37728         1052          584 
  427000    292.63729    285.39974   -27579.433    2655.8842    37732         1056          591 
  428000    303.06019    301.94237   -27568.482     2797.562    37741         1065          582 
  429000    283.42742     283.8851   -27649.572    2654.2186    37776         1100          624 
  430000    291.69263    298.05378   -27599.288    2767.8423    37776         1100          600 
  431000      298.342    291.23589    -27523.93    2714.8041    37739         1063          593 
  432000    287.51012    297.14735   -27535.619     2720.837    37743         1067          610 
  433000     298.8293      294.724    -27559.09      2715.25    37713         1037          573 
  434000    296.97994    295.22471   -27499.642    2711.3276    37710         1034          579 
  435000    282.38402    296.05271   -27609.265    2673.6917    37713         1037          578 
  436000      286.707    290.61424   -27716.858    2646.1282    37705         1029          569 
  437000     287.0291    291.06016   -27582.046    2676.1091    37734         1058          597 
  438000    290.61704    279.83173   -27581.089    2610.5986    37725         1049          570 
  439000    279.20745    294.89456   -27615.474    2666.1723    37724         1048          583 
  440000    284.05233    297.31992   -27538.262    2725.1097    37761         1085          602 
  441000     293.0817    297.84504   -27475.058    2765.4853    37769         1093          622 
  442000    298.53243    286.55739   -27472.243    2734.9565    37792         1116          623 
  443000    301.30971     292.5488   -27567.585    2789.0318    37800         1124          653 
  444000    284.22808    280.75254   -27652.224    2635.1592    37771         1095          638 
  445000    284.91165    300.77695   -27607.355    2770.8651    37785         1109          627 
  446000    302.09855    299.56928   -27542.161    2834.5915    37801         1125          640 
  447000    293.94061    293.52819   -27541.511    2724.6065    37749         1073          582 
  448000    297.57216    294.32593   -27439.765    2773.2636    37783         1107          644 
  449000    298.10356    300.95233   -27609.402    2777.3838    37741         1065          605 
  450000     298.5349    295.29327   -27570.726    2753.6272    37751         1075          622 
  451000    287.01642    289.32219   -27584.808    2645.8366    37712         1036          594 
  452000    282.10048    299.03192   -27535.016     2672.879    37692         1016          578 
  453000    290.65244    277.13525   -27616.233    2564.0704    37689         1013          563 
  454000    294.97453    298.97347   -27550.193    2697.2699    37677         1001          559 
  455000    284.68674    290.90348   -27476.219    2607.3595    37665          989          543 
  456000    282.40949    288.48299   -27591.322    2607.7215    37691         1015          578 
  457000     293.3301    289.44986   -27513.559    2633.3099    37676         1000          562 
  458000    304.04623    296.86981   -27582.237    2734.0402    37702         1026          571 
  459000    296.31205    288.80805   -27548.204    2672.7548    37715         1039          593 
  460000    300.31765    296.27661   -27582.365    2756.4176    37743         1067          562 
  461000    296.43506    309.73008   -27572.997    2794.7694    37707         1031          560 
  462000    288.99698    292.06909   -27584.506    2653.8582    37694         1018          554 
  463000    292.30621    298.71337   -27546.766    2737.4844    37734         1058          592 
  464000    297.19699    292.35977   -27464.092    2723.2869    37744         1068          605 
  465000    295.61126    279.99924   -27557.175    2689.5225    37797         1121          625 
  466000    298.35644    292.45643   -27638.703    2750.6092    37770         1094          605 
  467000    294.62493    295.47554   -27540.611    2739.0968    37749         1073          606 
  468000    293.59628    292.92046   -27524.843    2702.4661    37728         1052          577 
  469000     295.6703    283.90247   -27624.295    2655.3478    37730         1054          612 
  470000    284.78783    300.87268   -27551.609    2730.0212    37738         1062          611 
  471000    294.11606    279.17925    -27591.31    2662.1128    37776         1100          618 
  472000    294.44549    294.02627   -27550.517    2747.8263    37771         1095          597 
  473000    295.22127    296.36812   -27663.573    2742.9438    37745         1069          578 
  474000    291.96829      302.207   -27561.116    2788.7972    37769         1093          638 
  475000    286.54847    288.65729   -27636.975    2700.7139    37783         1107          665 
  476000    290.47283    298.75714   -27625.789    2734.5753    37737         1061          608 
  477000    297.17671    288.71897   -27613.805    2707.1385    37749         1073          625 
  478000    288.10523    296.09241   -27587.058    2733.6858    37764         1088          622 
  479000    302.92078    297.60583   -27473.997    2744.9688    37712         1036          555 
  480000    291.35567    296.62209   -27543.276    2681.7713    37687         1011          569 
  481000    292.73552     293.1388   -27534.298    2674.3366    37698         1022          578 
  482000    298.37097    284.90339   -27575.226    2644.2744    37702         1026          592 
  483000    290.68692    290.89984   -27513.158    2664.3081    37710         1034          584 
  484000    283.31364    290.78275   -27549.205    2649.6743    37720         1044          613 
  485000    287.11254    293.97839   -27472.195     2656.093    37689         1013          584 
  486000    301.62875    289.39038   -27582.397    2686.7877    37704         1028          583 
  487000    294.33407    293.95113    -27589.96    2688.3575    37702         1026          560 
  488000     275.2068    282.49625   -27501.511    2563.6801    37706         1030          574 
  489000    298.98176    290.87049    -27594.34    2723.5488    37748         1072          585 
  490000    300.31056    297.89884   -27594.485    2759.0064    37735         1059          602 
  491000    292.83943    296.57595   -27537.127    2749.5975    37760         1084          617 
  492000    301.24259      294.176   -27670.714    2775.7104    37774         1098          602 
  493000    289.75788    287.29851   -27645.894    2716.2327    37797         1121          642 
  494000    302.61328     300.3758   -27604.387    2848.2712    37810         1134          660 
  495000    282.34133     291.3828   -27662.721     2684.485    37760         1084          605 
  496000    293.27286    294.80171   -27571.271     2754.819    37778         1102          610 
  497000     290.4027    304.61497   -27561.327    2799.2901    37770         1094          616 
  498000    294.82118    290.40642   -27565.775    2732.0442    37774         1098          627 
  499000    301.56104    289.63917   -27712.648    2755.3076    37782         1106          604 
  500000    299.82677    289.66602   -27635.752    2722.0908    37752         1076          602 
Loop time of 40398.9 on 15 procs for 200000 steps with 37752 atoms

Performance: 0.428 ns/day, 56.110 hours/ns, 4.951 timesteps/s
92.9% CPU use with 15 MPI tasks x no OpenMP threads

MPI task timing breakdown:
Section |  min time  |  avg time  |  max time  |%varavg| %total
---------------------------------------------------------------
Pair    | 35.742     | 469.15     | 3750.5     |4385.8 |  1.16
Bond    | 0.044086   | 0.059223   | 0.06849    |   2.8 |  0.00
Kspace  | 250.3      | 3551.7     | 4027.2     |1610.6 |  8.79
Neigh   | 463.86     | 465.33     | 466.38     |   3.3 |  1.15
Comm    | 51.134     | 108.55     | 222.51     | 624.7 |  0.27
Output  | 0.025413   | 0.025844   | 0.028383   |   0.4 |  0.00
Modify  | 35793      | 35800      | 35813      |   3.3 | 88.62
Other   |            | 3.764      |            |       |  0.01

Nlocal:    2516.8 ave 3602 max 187 min
Histogram: 3 0 1 0 0 1 0 0 0 10
Nghost:    9782.8 ave 12963 max 8710 min
Histogram: 10 1 0 0 0 1 0 1 0 2
Neighs:    122763 ave 897755 max 7452 min
Histogram: 11 1 0 2 0 0 0 0 0 1

Total # of neighbors = 1841438
Ave neighs/atom = 48.7772
Ave special neighs/atom = 0.162111
Neighbor list builds = 410472
Dangerous builds = 0
write_data        C100_H2_1020watergcmc1.5ns.data
PPPM initialization ...
  using 12-bit tables for long-range coulomb (../kspace.cpp:321)
  G vector (1/distance) = 0.169301
  grid = 40 9 30
  stencil order = 5
  estimated absolute RMS force accuracy = 0.027557
  estimated relative force accuracy = 8.29871e-05
  using double precision FFTs
  3d grid and FFT values/proc = 2730 720
WARNING: Neighbor exclusions used with KSpace solver may give inconsistent Coulombic energies (../neighbor.cpp:472)
run               200000
PPPM initialization ...
  using 12-bit tables for long-range coulomb (../kspace.cpp:321)
  G vector (1/distance) = 0.169301
  grid = 40 9 30
  stencil order = 5
  estimated absolute RMS force accuracy = 0.027557
  estimated relative force accuracy = 8.29871e-05
  using double precision FFTs
  3d grid and FFT values/proc = 2730 720
WARNING: Neighbor exclusions used with KSpace solver may give inconsistent Coulombic energies (../neighbor.cpp:472)
Per MPI rank memory allocation (min/avg/max) = 10.45 | 11.3 | 14.88 Mbytes
Step c_mtem c_mwtem PotEng KinEng Atoms v_nH2 v_nbH2 
  500000    299.82677    289.66602   -27635.752    2722.0908    37752         1076          606 
  501000    302.90937    298.17292   -27632.086    2780.9751    37749         1073          610 
  502000    291.09203    292.56217   -27571.549    2721.0592    37763         1087          635 
  503000    284.86019    295.87358   -27558.459    2723.5118    37766         1090          607 
  504000    309.10765    290.64757   -27554.456    2785.7338    37783         1107          624 
  505000     296.2322    298.56534   -27555.759    2768.6214    37757         1081          622 
  506000    286.68361     293.9103   -27645.838     2729.873    37780         1104          632 
  507000    300.57133    300.92186   -27549.676    2798.3314    37758         1082          608 
  508000    293.11273    301.85237   -27576.678    2786.4446    37765         1089          624 
  509000    279.19241    290.64414   -27558.014    2620.2998    37702         1026          549 
  510000    295.71096    298.56971   -27560.089     2737.612    37721         1045          602 
  511000    300.54415    289.41334   -27576.235    2698.6058    37724         1048          593 
  512000    298.92196    288.85409   -27670.508    2717.8012    37753         1077          626 
  513000    292.71619    291.41411   -27559.279    2710.2451    37751         1075          599 
  514000    284.03456    291.93259   -27582.749    2703.6184    37773         1097          635 
  515000    295.10138    301.08931   -27566.303    2768.0746    37740         1064          613 
  516000    297.27219     287.7217   -27515.697     2706.392    37757         1081          644 
  517000    297.68883    294.41421   -27494.024     2734.958    37742         1066          624 
  518000    287.00002    290.60562   -27490.931    2678.7161    37743         1067          611 
  519000    293.77778    295.34338   -27489.616    2726.5103    37740         1064          580 
  520000     297.7485    297.29889   -27600.761    2762.5381    37751         1075          594 
  521000    285.42639    296.52125   -27607.808    2733.2828    37768         1092          628 
  522000    288.02751    283.36158   -27621.783    2660.9681    37764         1088          640 
  523000    286.19958    294.47272    -27578.15    2690.7805    37731         1055          599 
  524000    282.89339    299.06147    -27580.39    2697.0416    37718         1042          586 
  525000     292.3492    291.01848   -27548.668     2678.686    37715         1039          587 
  526000    284.89678    301.02537   -27559.454    2693.8203    37692         1016          567 
  527000    301.68721     288.9464   -27468.612    2698.5283    37722         1046          608 
  528000     302.4959    291.00179   -27533.191     2717.898    37728         1052          571 
  529000    288.62255    287.12627   -27614.687     2670.773    37751         1075          615 
  530000    287.78273    295.52005   -27545.092    2731.3255    37767         1091          606 
  531000     293.2875    290.92059    -27504.55    2716.6229    37761         1085          625 
  532000    300.62396    291.74388   -27569.291    2748.6939    37763         1087          632 
  533000    282.01901    301.10449   -27585.903    2750.4207    37770         1094          605 
  534000    295.54121    300.50755   -27729.774    2784.2642    37760         1084          602 
  535000     293.1401    293.40687   -27611.719    2712.0828    37739         1063          605 
  536000    287.29763    299.76178   -27680.608    2729.5796    37735         1059          586 
  537000    283.35037    300.16327   -27469.506    2703.5437    37716         1040          573 
  538000    289.86994    288.72439   -27468.038    2678.4169    37745         1069          589 
  539000    302.47186    286.24959   -27564.333    2704.7855    37745         1069          593 
  540000    291.10013    297.36373   -27554.853    2710.9183    37717         1041          598 
  541000    276.79644    298.13177   -27663.529    2683.6134    37732         1056          595 
  542000    299.59305    286.42291   -27590.549    2682.6967    37731         1055          618 
  543000    279.20177    296.30427   -27614.284    2671.6451    37722         1046          596 
  544000    293.20912    292.60591   -27658.624    2710.3101    37742         1066          595 
  545000    304.76362    291.92462   -27586.784    2744.3955    37744         1068          599 
  546000    297.79173    295.90323   -27565.704    2750.2963    37748         1072          628 
  547000      289.212    298.31966   -27535.144    2738.3504    37749         1073          616 
  548000    299.85207    287.62822     -27546.6    2745.9349    37791         1115          663 
  549000     297.4797    291.34217   -27597.995    2727.7065    37754         1078          617 
  550000     283.6117    291.58595   -27628.481    2696.8279    37770         1094          626 
  551000    300.65173    291.72789   -27548.052    2745.7468    37760         1084          600 
  552000    299.67972    286.42987   -27503.526    2680.1453    37725         1049          611 
  553000    284.50503    286.12431   -27630.164    2671.8557    37772         1096          613 
  554000    286.76804     294.4243   -27545.901    2714.8459    37758         1082          611 
  555000    290.34108    284.51602    -27618.39    2672.9804    37766         1090          632 
  556000     293.3771     292.4307   -27556.125    2717.9342    37751         1075          589 
  557000    295.93022    298.54881   -27597.582    2729.1515    37713         1037          577 
  558000    295.13708    292.63347   -27590.923    2703.2077    37727         1051          570 
  559000     300.6257    284.53018   -27571.243    2678.2619    37734         1058          603 
  560000    293.91291     288.1134   -27530.209    2699.3473    37757         1081          656 
  561000    297.35648    298.04561   -27555.468    2739.1096    37722         1046          600 
  562000    293.51372    289.29869   -27636.919    2693.5849    37744         1068          597 
  563000    292.82132    290.25874   -27551.965    2688.0944    37734         1058          597 
  564000    284.14187    293.79184   -27522.537    2656.9553    37705         1029          587 
  565000     299.7364    288.25165   -27533.094    2668.5358    37702         1026          588 
  566000    281.03377     296.5772    -27631.25    2660.9933    37701         1025          593 
  567000    281.63149    300.02704   -27626.502    2700.5047    37718         1042          596 
  568000    282.24948     299.0011   -27586.173    2712.4461    37740         1064          609 
  569000    291.81022    282.64997   -27583.278    2626.9418    37719         1043          593 
  570000    277.87677    300.15601    -27514.27    2691.1287    37722         1046          595 
  571000    290.67943    290.40187   -27501.977    2669.8475    37721         1045          572 
  572000     291.4672    297.82579   -27647.941    2722.6069    37727         1051          590 
  573000    309.22326    292.52241   -27575.527    2755.9731    37737         1061          601 
  574000    289.39018     290.9385   -27562.759    2668.6831    37719         1043          592 
  575000    276.74731    285.45678   -27533.343    2619.0698    37748         1072          603 
  576000    283.86764    286.91504   -27594.082    2638.9842    37732         1056          600 
  577000    282.15669    286.86538   -27575.897    2634.0512    37734         1058          601 
  578000    288.01934    291.21382   -27645.663    2660.9629    37714         1038          590 
  579000    286.72928    289.66726   -27640.952    2659.0169    37727         1051          605 
  580000     297.6378    298.78545   -27588.762    2761.6721    37742         1066          601 
  581000    284.46114    292.90446   -27592.245    2641.7291    37691         1015          554 
  582000    296.31487    295.28306    -27599.64    2730.5679    37735         1059          630 
  583000     292.2579    287.00228   -27552.914    2692.9209    37763         1087          635 
  584000    294.07038    280.81505   -27636.674    2639.4065    37740         1064          616 
  585000    303.88434    287.22748   -27508.261    2702.8526    37732         1056          595 
  586000    295.97616    293.52969   -27605.503    2743.1626    37763         1087          621 
  587000    296.83648    288.78522   -27501.413    2683.9021    37725         1049          600 
  588000    288.44522     289.0659   -27542.537    2674.0986    37743         1067          599 
  589000    279.14494    284.18782   -27513.358    2603.7331    37729         1053          603 
  590000    298.39941    293.12057   -27529.926    2704.4829    37713         1037          605 
  591000    308.40855     291.6631   -27475.281    2711.0233    37696         1020          563 
  592000    289.86054    292.90454   -27541.173    2667.9175    37702         1026          580 
  593000     292.0911    285.84715   -27577.562    2630.3019    37701         1025          587 
  594000    310.10205    292.81101   -27552.563    2741.9829    37716         1040          609 
  595000    287.42795    286.73048   -27553.087    2647.6478    37732         1056          586 
  596000    287.23406    303.35882   -27652.178    2730.6014    37712         1036          563 
  597000    299.38355    301.93203   -27588.745    2782.6882    37737         1061          585 
  598000    296.68086    295.70248   -27530.779    2735.0466    37736         1060          573 
  599000    304.54656    295.57099   -27576.401    2774.0052    37753         1077          606 
  600000    287.71408    289.18323   -27533.449    2662.7877    37731         1055          597 
  601000    294.21307    295.95494   -27619.498    2741.1349    37749         1073          595 
  602000    301.86112    294.35303   -27506.573    2748.1993    37740         1064          586 
  603000    292.14884    302.42718   -27570.739    2774.1718    37748         1072          613 
  604000    295.38806    300.63239   -27516.074    2765.6801    37740         1064          610 
  605000    288.30161    288.76436   -27523.791    2664.0816    37731         1055          608 
  606000     296.0449    289.60175   -27580.051    2718.7642    37758         1082          624 
  607000     301.7725    283.66878   -27579.804    2677.7741    37734         1058          623 
  608000    288.52734    293.49688   -27591.511    2664.9278    37701         1025          566 
  609000    290.65981     300.3271   -27647.611    2696.4251    37682         1006          562 
  610000    299.97568    294.42161   -27559.164    2672.5316    37664          988          552 
  611000    293.61656    290.19697   -27453.242    2652.8313    37691         1015          604 
  612000    302.80099     286.9331   -27534.168    2654.0809    37685         1009          593 
  613000    306.26586    305.37145   -27511.561    2783.4195    37691         1015          583 
  614000    292.97097      289.722    -27561.37    2674.7556    37722         1046          585 
  615000    291.29519    291.41449   -27550.011    2686.9983    37731         1055          586 
  616000    279.29055    294.91571   -27520.344    2676.7528    37738         1062          602 
  617000    287.88003    292.08788   -27538.849     2668.601    37717         1041          585 
  618000    307.13053    284.15596   -27473.004    2685.1169    37723         1047          595 
  619000    286.73101    291.39387   -27464.389    2694.3095    37756         1080          598 
  620000    294.83539    281.97527   -27672.852     2671.501    37766         1090          615 
  621000    295.11037    298.48629   -27524.538    2752.6861    37742         1066          597 
  622000    290.61989    296.64096   -27564.756     2751.248    37769         1093          633 
  623000    289.77572    292.69869    -27621.84    2688.4453    37727         1051          615 
  624000    296.32423    294.48665   -27570.904    2714.1837    37723         1047          597 
  625000    300.31919    296.65916   -27541.282    2727.0167    37708         1032          589 
  626000    292.68556    298.81898   -27443.547    2718.6315    37709         1033          591 
  627000    297.09964    288.01718    -27524.12    2668.6198    37711         1035          597 
  628000    295.92632    293.42203   -27576.868    2698.5558    37713         1037          584 
  629000    289.67039    298.39761   -27544.501    2745.3974    37754         1078          631 
  630000    291.94551    296.38424   -27457.851    2695.7294    37704         1028          594 
  631000    294.15054    290.36096   -27567.611    2693.7364    37733         1057          593 
  632000    296.15019    292.36789   -27581.405    2737.0876    37764         1088          612 
  633000    293.11185    297.01088   -27528.324    2735.6512    37741         1065          622 
  634000    298.72438    287.49357   -27537.811    2690.7369    37736         1060          614 
  635000    279.62477    297.69443   -27576.238    2699.5859    37744         1068          598 
  636000    290.90463    286.03106   -27568.825    2681.5623    37764         1088          599 
  637000    306.44367    288.63978   -27551.431    2707.5763    37720         1044          579 
  638000    293.13853    292.22429   -27567.565    2653.4409    37680         1004          549 
  639000    299.15798    286.51224   -27507.409    2640.5321    37683         1007          560 
  640000    285.79033    298.21879   -27470.162    2680.2851    37692         1016          553 
  641000    291.96873    293.21723   -27608.976    2709.9514    37741         1065          605 
  642000    300.90791    290.06681   -27647.857    2695.1615    37716         1040          580 
  643000    292.40438    298.16901   -27623.051    2726.3201    37725         1049          578 
  644000    283.72424    295.85708   -27562.476    2688.4203    37728         1052          612 
  645000    295.22221    299.78475   -27518.271    2742.3962    37719         1043          591 
  646000    305.72295    296.32401    -27590.49    2748.3889    37713         1037          591 
  647000    292.11198    287.48318   -27536.214    2658.8593    37721         1045          601 
  648000    288.25505    311.42153   -27580.635     2793.701    37724         1048          578 
  649000    284.84114    292.70979   -27570.823     2654.355    37706         1030          575 
  650000    295.83837    285.47206   -27456.202    2662.8156    37727         1051          602 
  651000    280.13563    288.64295   -27550.335    2615.2211    37705         1029          567 
  652000    285.23341    281.22865   -27574.409    2598.3221    37721         1045          575 
  653000    288.23617    291.36526   -27580.115    2679.3646    37730         1054          600 
  654000    301.72767    291.21839   -27557.703    2706.5616    37715         1039          592 
  655000    301.33532      288.925   -27480.703    2712.7585    37739         1063          633 
  656000    289.11389    292.23475   -27498.571    2684.2359    37727         1051          613 
  657000    290.60058    285.11189    -27580.15    2650.2531    37733         1057          607 
  658000    280.15042    291.91026   -27496.659    2633.3964    37701         1025          575 
  659000    300.95486    293.81907   -27578.481    2713.8975    37710         1034          588 
  660000    293.57314    291.98781     -27469.8    2694.9067    37727         1051          607 
  661000    293.05468     301.6437   -27505.445    2722.0286    37694         1018          602 
  662000    302.34871    295.97792   -27577.489    2742.5286    37723         1047          633 
  663000     292.8727    295.04457   -27553.637    2734.5695    37753         1077          621 
  664000    284.27419     286.8259   -27632.133    2684.8788    37787         1111          627 
  665000    287.93041    292.56664   -27626.355    2745.2345    37802         1126          625 
  666000    278.04329    291.35982   -27504.191    2679.2408    37770         1094          630 
  667000    293.10044    298.57162   -27541.924    2764.6165    37764         1088          595 
  668000    297.28402     294.0288   -27609.564    2725.6064    37734         1058          566 
  669000    296.11317     287.7921   -27545.781     2697.045    37750         1074          601 
  670000     282.1711    292.18971   -27569.545    2702.5471    37778         1102          634 
  671000    294.78233    291.45452   -27537.883    2729.9742    37766         1090          634 
  672000    296.90865    289.79991   -27602.326    2722.5697    37762         1086          601 
  673000    291.25809    290.05186   -27594.496    2717.2916    37774         1098          597 
  674000    305.24662    299.57216   -27550.087    2826.5842    37779         1103          600 
  675000    288.09776    293.11184   -27673.191    2739.6383    37791         1115          634 
  676000    283.56477    291.22164   -27547.708    2708.9706    37781         1105          615 
  677000    296.71083    285.72786   -27574.353    2696.7789    37761         1085          599 
  678000    296.71947    293.31819   -27586.628    2737.9234    37756         1080          613 
  679000    277.53592    290.04946   -27569.831    2627.1015    37721         1045          575 
  680000    285.78735    292.36138   -27549.075      2667.15    37721         1045          581 
  681000    303.93562    282.64032   -27500.032    2637.0899    37690         1014          581 
  682000     289.6957    291.56481   -27480.443    2675.0669    37721         1045          599 
  683000    285.96867    291.77893   -27550.976    2654.5283    37710         1034          602 
  684000    285.84816    284.39056   -27561.945    2592.3946    37690         1014          579 
  685000     288.7906     290.8494   -27610.545    2657.4232    37709         1033          596 
  686000    292.82882    302.23393   -27556.638    2749.3161    37720         1044          583 
  687000    301.09184    289.53859   -27566.232    2718.2314    37743         1067          593 
  688000     299.8592    286.69656   -27649.473    2699.2511    37745         1069          594 
  689000    291.42654    293.76462   -27423.904    2719.8763    37750         1074          582 
  690000    296.86411    293.34707   -27555.492    2739.5529    37755         1079          579 
  691000     290.3088    292.98306   -27587.481    2695.6807    37733         1057          590 
  692000    302.34488     287.9152   -27581.027    2694.7549    37724         1048          570 
  693000    297.22137    280.64318   -27626.256    2654.7396    37746         1070          587 
  694000    287.53596    289.41057   -27597.992    2712.5389    37787         1111          621 
  695000    309.81076    294.36674   -27598.003    2809.0166    37780         1104          606 
  696000    288.70936    300.12895   -27587.169    2757.5471    37759         1083          629 
  697000    299.47748    295.39396   -27573.593    2751.3432    37746         1070          611 
  698000    278.24766    298.70528   -27677.321    2715.3362    37757         1081          591 
  699000    291.16024    291.60022   -27531.369    2711.2261    37755         1079          589 
  700000     283.9108    292.11395   -27574.228    2685.3508    37749         1073          632 
Loop time of 46964.2 on 15 procs for 200000 steps with 37749 atoms

Performance: 0.368 ns/day, 65.228 hours/ns, 4.259 timesteps/s
92.5% CPU use with 15 MPI tasks x no OpenMP threads

MPI task timing breakdown:
Section |  min time  |  avg time  |  max time  |%varavg| %total
---------------------------------------------------------------
Pair    | 37.311     | 530.85     | 4469       |4865.5 |  1.13
Bond    | 0.048025   | 0.067307   | 0.094349   |   4.1 |  0.00
Kspace  | 300.28     | 4253       | 4802.9     |1733.6 |  9.06
Neigh   | 524.43     | 526.15     | 527.63     |   4.2 |  1.12
Comm    | 62.517     | 136.73     | 275.79     | 641.8 |  0.29
Output  | 0.031242   | 0.031857   | 0.036345   |   0.7 |  0.00
Modify  | 41493      | 41513      | 41529      |   5.2 | 88.39
Other   |            | 4.547      |            |       |  0.01

Nlocal:    2516.6 ave 3631 max 178 min
Histogram: 3 0 1 0 0 1 0 0 0 10
Nghost:    9781.13 ave 12777 max 8695 min
Histogram: 10 1 0 0 0 1 0 0 1 2
Neighs:    119413 ave 915312 max 7584 min
Histogram: 11 1 0 2 0 0 0 0 0 1

Total # of neighbors = 1791195
Ave neighs/atom = 47.4501
Ave special neighs/atom = 0.162123
Neighbor list builds = 410557
Dangerous builds = 91
write_data        C100_H2_1020watergcmc1.7ns.data
PPPM initialization ...
  using 12-bit tables for long-range coulomb (../kspace.cpp:321)
  G vector (1/distance) = 0.169301
  grid = 40 9 30
  stencil order = 5
  estimated absolute RMS force accuracy = 0.0275581
  estimated relative force accuracy = 8.29904e-05
  using double precision FFTs
  3d grid and FFT values/proc = 2730 720
WARNING: Neighbor exclusions used with KSpace solver may give inconsistent Coulombic energies (../neighbor.cpp:472)
run               300000
PPPM initialization ...
  using 12-bit tables for long-range coulomb (../kspace.cpp:321)
  G vector (1/distance) = 0.169301
  grid = 40 9 30
  stencil order = 5
  estimated absolute RMS force accuracy = 0.0275581
  estimated relative force accuracy = 8.29904e-05
  using double precision FFTs
  3d grid and FFT values/proc = 2730 720
WARNING: Neighbor exclusions used with KSpace solver may give inconsistent Coulombic energies (../neighbor.cpp:472)
Per MPI rank memory allocation (min/avg/max) = 10.71 | 11.56 | 15.14 Mbytes
Step c_mtem c_mwtem PotEng KinEng Atoms v_nH2 v_nbH2 
  700000     283.9108    292.11395   -27574.228    2685.3508    37749         1073          634 
  701000    294.01345    300.03677   -27584.176    2744.0006    37727         1051          598 
  702000    285.80141    290.55587   -27600.264    2661.4542    37727         1051          601 
  703000     298.9111    287.42437   -27582.647    2678.6245    37719         1043          592 
  704000    296.56273    292.36554   -27535.605    2681.1415    37698         1022          584 
  705000    297.99767    297.92847   -27578.358    2771.6253    37757         1081          622 
  706000    285.34833    292.55208   -27525.386    2650.8235    37702         1026          568 
  707000     289.0716    304.19917   -27628.503    2769.8047    37743         1067          593 
  708000    298.86051    300.18763   -27647.656    2765.6408    37730         1054          575 
  709000    293.47808    291.73573   -27533.563    2721.6877    37758         1082          609 
  710000     296.8951    302.37346   -27643.543    2821.1094    37784         1108          632 
  711000    293.69933     295.4782   -27649.078    2768.8067    37784         1108          627 
  712000     298.5755    294.17003   -27588.677    2777.1587    37787         1111          630 
  713000    296.23989    301.96877    -27546.62    2804.1959    37772         1096          592 
  714000    303.91729    285.45492   -27556.765     2732.338    37776         1100          637 
  715000    299.31036    291.53016   -27630.379    2737.4475    37758         1082          615 
  716000    285.30079    293.52315   -27631.506    2715.9638    37770         1094          596 
  717000    298.18547    301.23564   -27554.489    2795.3596    37761         1085          612 
  718000    291.29265    290.39717   -27596.803    2694.3685    37746         1070          619 
  719000    280.23792    301.28947   -27590.095    2718.8604    37738         1062          606 
  720000    291.34309    295.01539   -27591.141    2676.3706    37692         1016          573 
  721000    294.05188    293.99241   -27529.655    2698.0359    37713         1037          594 
  722000    292.16298    299.24236   -27494.955    2744.5254    37738         1062          625 
  723000    307.54182    293.70511   -27560.931     2751.015    37729         1053          622 
  724000    291.48896    299.29356   -27554.397    2748.4726    37746         1070          641 
  725000    292.55428    301.72027   -27499.982    2749.2552    37726         1050          605 
  726000    305.59904    297.30878   -27504.494    2742.8069    37703         1027          591 
  727000    288.10073    291.36614   -27512.583    2684.9701    37740         1064          607 
  728000    285.98501    291.16325   -27503.199    2677.9014    37741         1065          615 
  729000    287.78474    302.31918    -27514.81    2747.3399    37735         1059          600 
  730000     294.3835    292.30427   -27480.063    2701.8337    37730         1054          614 
  731000    311.22288    296.83466   -27580.461    2775.3621    37722         1046          615 
  732000    292.42869    294.61431   -27555.808    2685.4272    37698         1022          591 
  733000    283.27574    293.11278   -27624.077    2641.5427    37695         1019          587 
  734000    287.19086    292.02771   -27507.399    2645.0786    37689         1013          581 
  735000    289.84265    291.86781   -27524.059    2655.3522    37696         1020          570 
  736000     281.3416    296.11707   -27409.132    2688.4216    37735         1059          602 
  737000    295.98552    290.15604   -27527.166     2693.415    37730         1054          585 
  738000    295.80953    292.31574   -27639.335    2727.0671    37753         1077          604 
  739000    295.74164    297.10915   -27500.446    2790.2018    37792         1116          652 
  740000    291.51088    294.77364    -27590.11    2748.1633    37775         1099          626 
  741000    284.82059    294.14256   -27559.072    2707.5886    37759         1083          630 
  742000     293.0868    291.12029   -27514.026    2691.5442    37731         1055          601 
  743000    287.08647    291.98304   -27572.745    2664.9115    37715         1039          589 
  744000    277.18484    286.28577   -27547.728    2569.7523    37678         1002          563 
  745000    285.34608    289.15911   -27479.104     2645.696    37719         1043          594 
  746000    294.16038    298.48587   -27599.265    2729.5791    37719         1043          605 
  747000    295.77344    282.76841   -27603.405    2637.5534    37717         1041          583 
  748000    287.00963    292.13406   -27491.935    2683.8153    37734         1058          594 
  749000    292.28462    294.35537   -27640.511    2700.9273    37721         1045          603 
  750000    300.83087    283.90806   -27438.722    2667.5745    37724         1048          604 
  751000    296.55729    292.41706   -27508.289    2697.2149    37717         1041          594 
  752000    289.05752    289.50173   -27482.829    2644.9017    37704         1028          586 
  753000     290.0038    306.89335   -27472.171     2731.936    37678         1002          586 
  754000    274.69308    299.53725   -27542.799    2675.0963    37717         1041          607 
  755000    294.58937    298.35177   -27533.335     2732.839    37723         1047          618 
  756000    288.73421    286.57264   -27563.307    2618.3603    37695         1019          575 
  757000    293.10507    292.96947   -27534.477    2681.9709    37708         1032          581 
  758000    296.09184    297.39496   -27517.781    2746.8437    37738         1062          606 
  759000    287.95056    290.45218   -27542.668    2685.8052    37747         1071          597 
  760000    293.42727    295.02349   -27494.501    2752.1889    37773         1097          618 
  761000     303.2909    290.98687    -27618.46    2739.0763    37748         1072          616 
  762000    284.20938    301.55942   -27521.294    2729.0776    37733         1057          602 
  763000    291.64536    291.33696   -27533.965    2706.0321    37752         1076          629 
  764000       310.15    298.75101   -27445.269     2802.446    37743         1067          603 
  765000    300.30294    292.13649   -27601.749    2708.8031    37719         1043          591 
  766000    283.64003    298.11551   -27532.903    2659.2054    37678         1002          545 
  767000    289.70028    294.59883    -27488.34    2642.2502    37662          986          545 
  768000    299.88044    290.28832   -27481.112    2671.6802    37689         1013          554 
  769000    287.98961    286.93551   -27518.905    2642.3308    37719         1043          579 
  770000    279.05292    295.61976   -27614.841    2645.1565    37695         1019          576 
  771000    297.23496    292.52948   -27478.985    2712.8523    37730         1054          617 
  772000    300.43726    291.47922   -27585.202    2706.1864    37720         1044          612 
  773000    300.69429    302.01975   -27517.443    2749.2642    37693         1017          586 
  774000    283.91083    285.90853   -27566.614    2628.6025    37726         1050          604 
  775000    294.10454    296.45186   -27540.924    2727.7402    37729         1053          600 
  776000    307.66074    300.14701   -27540.071    2747.2562    37681         1005          589 
  777000    286.77099    291.67259   -27487.304    2651.3254    37703         1027          599 
  778000    288.41262    290.03835   -27517.442    2644.9656    37702         1026          567 
  779000     289.5955    293.38553   -27533.734    2701.8071    37739         1063          625 
  780000    292.46829    291.48029   -27457.577    2697.6579    37736         1060          607 
  781000    293.79422    302.15365   -27467.281    2741.4196    37708         1032          577 
  782000    290.17652    296.70576   -27551.247    2728.3847    37745         1069          596 
  783000     306.6222    295.53377   -27593.729    2775.7791    37747         1071          597 
  784000    291.75011     291.4017   -27572.255     2707.115    37751         1075          623 
  785000     296.3131    289.53936   -27664.245    2704.4756    37742         1066          582 
  786000    303.38757    290.83621   -27589.454    2733.0045    37742         1066          599 
  787000    288.44266    290.37693   -27468.923    2693.8556    37756         1080          652 
  788000    289.86953    302.56967   -27570.861    2769.8428    37752         1076          630 
  789000    293.40044    292.97472   -27591.916    2680.4019    37705         1029          570 
  790000    295.56184    305.79987   -27540.031    2778.8961    37716         1040          584 
  791000    297.00732    294.03441   -27523.798    2714.1905    37722         1046          593 
  792000    293.56188    287.58202   -27506.482    2661.1735    37717         1041          597 
  793000    292.72868    303.00564   -27513.118    2774.1404    37743         1067          605 
  794000    294.27643    288.03665   -27510.318    2682.9836    37739         1063          581 
  795000    310.27076    291.41082   -27636.561    2752.2976    37735         1059          604 
  796000    286.84092     293.6455   -27483.574    2701.2467    37748         1072          610 
  797000    292.60379    290.07866   -27463.799    2678.6823    37725         1049          591 
  798000     296.4335    284.95008   -27652.722    2650.2144    37716         1040          593 
  799000    294.99517    293.44827   -27581.346    2706.6122    37725         1049          591 
  800000    291.87442    292.61459   -27583.522      2692.96    37727         1051          587 
  801000     288.6551     288.7609    -27546.95    2660.2009    37728         1052          613 
  802000     293.8662    289.12424   -27700.177    2664.7392    37710         1034          581 
  803000    285.43012    288.24102   -27607.343    2625.4048    37702         1026          600 
  804000    309.19752    291.11734   -27610.783    2689.4335    37674          998          589 
  805000    294.19237    292.96773   -27505.588    2653.1133    37670          994          569 
  806000    284.02669    283.89925   -27557.292    2565.1171    37667          991          563 
  807000    288.49886    293.33758   -27509.723    2632.1469    37664          988          549 
  808000    299.40623    294.53587   -27578.323    2693.5051    37686         1010          573 
  809000    283.22215    294.12365   -27605.867    2668.0068    37717         1041          587 
  810000    295.50687    295.94456   -27434.086     2688.701    37687         1011          564 
  811000    294.77367    294.83168   -27471.073    2686.1253    37694         1018          580 
  812000    289.49406    290.43756    -27489.86    2677.8684    37733         1057          596 
  813000    305.03158    293.41272   -27525.989    2751.5658    37738         1062          616 
  814000    289.81821    295.32895   -27608.719    2713.3178    37736         1060          591 
  815000    293.22686    292.27911   -27572.808    2680.5181    37711         1035          573 
  816000    286.66637    287.92318   -27573.891    2641.2881    37718         1042          583 
  817000     288.1927    297.96756   -27572.265    2714.9479    37727         1051          586 
  818000    280.14803    294.15463   -27549.249    2673.9124    37736         1060          621 
  819000    296.72133    283.15058   -27563.942    2665.0741    37742         1066          630 
  820000    293.70211    302.78382   -27482.443    2806.4413    37780         1104          622 
  821000    304.77638    289.53457   -27596.851    2789.1943    37808         1132          663 
  822000    285.46173     292.5333   -27570.283    2750.9069    37820         1144          667 
  823000    293.95761    289.61152   -27551.341    2747.8311    37803         1127          669 
  824000    293.79597    291.25485   -27625.156    2747.6539    37791         1115          634 
  825000    281.17143    292.15294   -27524.183    2702.7033    37782         1106          631 
  826000    301.30654     286.2294   -27555.089    2694.9307    37740         1064          608 
  827000    295.49488    289.70352   -27608.935    2696.3851    37738         1062          608 
  828000    287.56824    302.96276   -27585.797    2741.1766    37725         1049          602 
  829000    299.79859    300.67194   -27489.051    2756.2804    37715         1039          594 
  830000    306.24103    299.85736   -27403.054    2737.0732    37678         1002          545 
  831000    292.57376      298.194   -27517.425    2700.2481    37693         1017          586 
  832000     295.1717    291.50744   -27610.496    2677.4999    37705         1029          605 
  833000    308.75645    302.02158   -27593.111    2756.3581    37676         1000          557 
  834000      298.596    295.47991   -27471.878    2664.4413    37652          976          557 
  835000    287.05018    299.82446   -27538.086    2682.5335    37681         1005          564 
  836000    296.71098    284.73162   -27594.529    2626.0631    37687         1011          584 
  837000     283.3362    294.45188   -27514.521    2683.2702    37733         1057          606 
  838000    296.36627    288.93194   -27485.903    2693.4921    37736         1060          586 
  839000    304.19671    296.52848    -27528.54    2768.6125    37740         1064          620 
  840000    288.11321     292.1067    -27500.42    2668.8639    37716         1040          604 
  841000    300.69685    294.97709   -27535.447    2745.1812    37738         1062          612 
  842000    292.52442    292.57286   -27614.236     2711.912    37747         1071          611 
  843000    293.74797    294.97594   -27581.174    2743.8873    37761         1085          626 
  844000    292.81597    299.61473    -27592.07    2780.5599    37775         1099          624 
  845000    288.68482    285.30221   -27547.758    2675.6523    37770         1094          621 
  846000    301.10215    291.86082   -27534.747    2750.2803    37763         1087          613 
  847000      305.542    293.87206   -27558.645    2756.1482    37740         1064          610 
  848000    297.36988    293.71866   -27622.027    2753.4325    37764         1088          635 
  849000    293.01886    298.03564   -27606.115    2750.7162    37749         1073          594 
  850000    293.72507    286.45622   -27562.992    2702.2091    37772         1096          616 
  851000    299.11098    283.09631    -27592.04    2663.3883    37732         1056          584 
  852000    293.44555    287.72327   -27601.636    2679.1777    37738         1062          583 
  853000    287.07233    295.19524   -27636.908    2726.7526    37763         1087          584 
  854000    299.17725     288.4096   -27605.426    2721.9561    37758         1082          608 
  855000    300.69495    286.36673    -27492.35    2709.1845    37752         1076          593 
  856000    296.15784     308.0716   -27519.821    2783.7461    37705         1029          581 
  857000    284.41221     286.8069   -27484.469    2610.7345    37697         1021          570 
  858000    280.97153    285.86782   -27415.803    2589.5706    37692         1016          567 
  859000     299.9186    290.56192   -27428.956    2676.6927    37694         1018          558 
  860000    291.20496    300.10278   -27576.815     2742.914    37734         1058          607 
  861000    290.90453    295.32788   -27627.514    2676.4572    37693         1017          572 
  862000    290.44847    298.97661   -27486.714    2722.7133    37722         1046          601 
  863000    298.51389    294.01363   -27650.664      2744.21    37751         1075          603 
  864000     295.2775    295.81542   -27632.556    2743.3179    37749         1073          607 
  865000    288.37652    284.19108   -27542.931    2660.5208    37761         1085          609 
  866000     290.0048    298.09114   -27537.278    2747.9206    37759         1083          607 
  867000    290.66758    294.04593   -27574.608    2727.6264    37760         1084          625 
  868000    297.78696    303.06697   -27574.357    2795.7992    37749         1073          599 
  869000    291.86318    286.57995   -27626.823    2674.3839    37747         1071          598 
  870000    282.26568    290.43226   -27560.461    2663.9812    37742         1066          610 
  871000    305.93086    294.27962   -27542.618    2726.9031    37702         1026          587 
  872000    285.70755    291.16037   -27579.985    2659.1504    37718         1042          583 
  873000    287.56507    291.04105   -27634.922    2671.1863    37729         1053          595 
  874000    295.34434    293.64518   -27564.618    2683.8107    37698         1022          595 
  875000    293.43198    297.85001   -27558.893     2717.688    37714         1038          569 
  876000    292.54313    297.28217   -27499.834     2717.263    37719         1043          597 
  877000    308.45813    291.95192    -27536.96    2732.5826    37716         1040          610 
  878000    287.09393    296.56523   -27613.642    2707.6906    37733         1057          618 
  879000    289.29725    293.78445   -27576.444    2673.9842    37706         1030          606 
  880000    291.40248    294.26757   -27576.131    2705.9804    37730         1054          626 
  881000    321.91606    294.55709   -27633.721    2773.4085    37700         1024          604 
  882000    291.42558    294.82254   -27533.666    2676.2917    37692         1016          609 
  883000    283.52389    295.43394   -27572.197    2654.4438    37692         1016          590 
  884000     300.6912    284.70789   -27429.354     2651.914    37702         1026          570 
  885000     285.9782    287.88287   -27560.686    2630.0467    37705         1029          556 
  886000    291.54356    292.61767   -27465.122    2654.5627    37684         1008          560 
  887000    291.81564    291.28376   -27591.626    2667.0749    37707         1031          583 
  888000    294.50354     285.8907     -27536.1    2647.2321    37712         1036          580 
  889000    295.98254    289.69484   -27589.003    2682.5067    37721         1045          622 
  890000    284.89056    291.31258   -27515.336    2662.3965    37726         1050          597 
  891000    284.73094    300.13876   -27563.772    2725.9456    37738         1062          607 
  892000    303.04825    289.45614   -27528.479    2693.0502    37707         1031          597 
  893000    284.82595    299.46176   -27574.619    2699.7299    37712         1036          606 
  894000    294.06043    306.56388    -27607.28    2780.7581    37723         1047          587 
  895000    295.37625    285.08367   -27639.642    2641.8206    37708         1032          561 
  896000    295.25286    284.72229     -27605.6    2648.9943    37720         1044          575 
  897000    290.34798    302.77357   -27609.081    2730.9109    37704         1028          571 
  898000    298.13356     291.7181   -27642.425    2715.2515    37736         1060          603 
  899000    304.19615    304.30904   -27622.685    2822.1077    37749         1073          587 
  900000    287.28031    296.50963    -27577.27    2740.4781    37772         1096          624 
  901000    287.10539    299.08815   -27542.164    2756.5628    37773         1097          608 
  902000     286.7127    291.02726   -27537.536    2687.6669    37750         1074          609 
  903000    295.04525     297.3214       -27511    2756.9387    37756         1080          635 
  904000    293.94898    294.72856   -27558.443    2747.1315    37767         1091          610 
  905000    302.74092    294.39155   -27525.751    2786.4269    37781         1105          615 
  906000    288.76505    295.78686    -27590.02    2767.5104    37800         1124          653 
  907000    289.86994    286.21158    -27577.76    2676.5372    37761         1085          604 
  908000    303.71969    293.11457   -27576.151    2778.3492    37777         1101          623 
  909000    286.83297     281.6735   -27611.243    2638.3147    37758         1082          632 
  910000    281.24263    295.95158   -27524.579    2688.5012    37737         1061          600 
  911000    300.50117    301.44284   -27622.541    2845.5503    37805         1129          656 
  912000    299.67821    300.86623   -27574.607    2810.9696    37775         1099          641 
  913000    292.24779    293.70036   -27550.338    2762.8328    37797         1121          643 
  914000    292.34298    295.29451   -27590.193    2748.9473    37770         1094          632 
  915000    288.07675    299.84727   -27495.396    2750.9668    37757         1081          594 
  916000    290.38325     307.9149   -27563.301    2832.5573    37785         1109          600 
  917000    287.63028    294.10473   -27598.589    2733.9337    37780         1104          626 
  918000    289.59654    288.21231   -27539.041    2678.4155    37748         1072          620 
  919000    285.22838    289.77786   -27486.269     2657.764    37726         1050          602 
  920000       288.04    301.44999   -27496.907    2728.0469    37717         1041          593 
  921000    290.06656    299.10489       -27452    2735.4641    37736         1060          578 
  922000     298.9109    297.00743   -27517.248    2730.8598    37715         1039          570 
  923000    281.91462    288.53589   -27474.787    2646.6133    37737         1061          573 
  924000    292.01641    290.58095    -27475.77    2668.3142    37713         1037          577 
  925000    302.75392    297.66165   -27516.194    2774.5329    37746         1070          622 
  926000    298.84257    280.82428    -27556.32     2683.745    37771         1095          615 
  927000    293.51342    284.09066   -27636.486    2672.3858    37756         1080          614 
  928000    298.09992    290.93141    -27665.42    2712.8384    37739         1063          612 
  929000    292.56548    294.51798   -27558.824    2710.1108    37731         1055          593 
  930000    307.50595    299.85596   -27546.244    2783.8223    37723         1047          635 
  931000    296.96138    297.98826   -27592.506    2737.9798    37723         1047          573 
  932000    290.11738    282.51855   -27611.304    2613.9304    37712         1036          572 
  933000    290.81699    295.63743   -27576.116    2672.7554    37684         1008          589 
  934000    300.50804    285.05437    -27564.41    2659.7388    37711         1035          574 
  935000    295.69701     292.6928   -27528.978    2727.3469    37752         1076          623 
  936000     273.2687    291.65972   -27521.084     2639.309    37740         1064          613 
  937000    288.52532    289.53992   -27570.739     2700.987    37769         1093          632 
  938000    295.24172    292.98345    -27589.68    2725.9723    37750         1074          614 
  939000    313.91163    292.10822    -27506.16    2780.9791    37750         1074          598 
  940000    289.69945    291.31422   -27484.839     2707.991    37762         1086          627 
  941000    281.35708    290.76681   -27488.217    2683.4414    37766         1090          637 
  942000    300.89137    296.96181   -27497.538    2762.8499    37743         1067          599 
  943000    291.28166    283.03608   -27469.733    2663.0249    37762         1086          628 
  944000     299.0081    298.26288   -27580.665    2768.0222    37747         1071          590 
  945000    285.15467    302.27644   -27560.081    2712.0491    37706         1030          587 
  946000    291.60154    290.05761   -27520.626    2679.9654    37731         1055          612 
  947000     289.7756    299.81678   -27482.221      2699.84    37691         1015          561 
  948000    290.71784    299.90464   -27540.515    2737.6178    37729         1053          592 
  949000    295.31229    293.52041   -27551.304    2731.4461    37749         1073          596 
  950000    287.21993    291.27178   -27495.203     2683.679    37739         1063          597 
  951000    291.26692    299.22522   -27453.689     2755.308    37752         1076          608 
  952000    305.55796    294.48154   -27551.005    2768.8464    37749         1073          624 
  953000    290.45381    280.44897   -27493.441    2594.8368    37702         1026          569 
  954000    291.97931    296.47459   -27561.909     2696.936    37704         1028          574 
  955000    305.25381    289.64604   -27545.665    2695.2464    37703         1027          578 
  956000    293.67929     299.0335   -27517.312    2707.8431    37692         1016          546 
  957000    292.44771    288.71273   -27547.337    2660.2033    37715         1039          586 
  958000    284.91835    292.47734   -27588.976    2674.6399    37733         1057          600 
  959000    298.16827    295.42132    -27570.69    2745.1782    37744         1068          623 
  960000    294.24301    300.23897   -27467.787    2780.8894    37764         1088          625 
  961000    287.62531    295.75604   -27565.721    2715.5246    37746         1070          638 
  962000     283.1045    290.12499   -27538.362    2620.7502    37692         1016          584 
  963000    284.10543    299.08258   -27497.226    2690.2039    37706         1030          580 
  964000    292.14369    287.54735   -27492.809    2668.3818    37732         1056          611 
  965000    300.95881    298.71529   -27542.575    2755.0008    37722         1046          603 
  966000    301.45223    280.84035   -27478.492    2647.1605    37722         1046          592 
  967000    296.11623    292.31425    -27587.96    2730.9547    37755         1079          601 
  968000    289.55625    294.98054   -27547.726    2714.5904    37743         1067          608 
  969000    281.60684    291.16729   -27537.375    2667.8389    37745         1069          619 
  970000    291.60492    284.69388   -27517.468    2648.1794    37732         1056          602 
  971000    283.52512    286.74172    -27552.25    2682.4714    37785         1109          672 
  972000    311.99399    289.31135   -27516.962    2752.3306    37744         1068          596 
  973000    294.08979    296.01289   -27529.685    2714.8778    37719         1043          593 
  974000    297.88589    307.47443   -27552.077    2815.8045    37741         1065          599 
  975000    296.98458    288.19409   -27497.314    2685.4312    37730         1054          597 
  976000    296.29252    300.16784   -27514.874    2762.7879    37738         1062          595 
  977000    277.61099    303.71447   -27505.792    2729.5553    37744         1068          624 
  978000    290.99686    288.01585   -27558.849    2678.1573    37746         1070          635 
  979000    294.62751    293.39216   -27453.202    2709.3508    37730         1054          628 
  980000    289.53936    289.97094   -27526.728    2690.9316    37749         1073          620 
  981000    282.70587    290.89822   -27510.304     2644.153    37715         1039          599 
  982000    298.65567    286.44112   -27552.182    2669.5533    37718         1042          592 
  983000    302.29831    289.17246   -27536.277    2684.8966    37705         1029          590 
  984000    303.34115    299.43786   -27543.049    2761.9326    37717         1041          587 
  985000    292.13665    286.11437   -27632.285    2645.9665    37716         1040          598 
  986000    290.14309    293.53764   -27535.163     2685.126    37717         1041          584 
  987000    286.65607      289.846    -27501.49    2664.4193    37731         1055          580 
  988000    296.20603    291.17166   -27445.447    2691.5391    37718         1042          578 
  989000    292.96367    294.78195   -27532.835    2714.6225    37730         1054          607 
  990000    290.05972    287.98473   -27534.025    2670.8548    37738         1062          597 
  991000    288.07349    290.60664   -27565.446    2666.4288    37722         1046          566 
  992000    309.81015    302.00224    -27453.44    2763.2983    37678         1002          545 
  993000    291.43269    284.70014   -27475.085    2654.5672    37738         1062          599 
  994000    280.37675    300.18432    -27517.39    2666.6588    37681         1005          560 
  995000    287.02565     291.7677   -27553.101    2669.4756    37716         1040          573 
  996000    274.61016    294.73073   -27590.645    2678.3147    37758         1082          613 
  997000    302.65956    302.25381   -27466.928    2813.4273    37758         1082          612 
  998000    292.43033    284.54315   -27419.408     2656.566    37737         1061          598 
  999000    292.35237    290.68544   -27477.423    2677.5047    37720         1044          578 
 1000000    287.80888    289.54881   -27517.797      2653.61    37717         1041          574 
Loop time of 56827.7 on 15 procs for 300000 steps with 37717 atoms

Performance: 0.456 ns/day, 52.618 hours/ns, 5.279 timesteps/s
93.1% CPU use with 15 MPI tasks x no OpenMP threads

MPI task timing breakdown:
Section |  min time  |  avg time  |  max time  |%varavg| %total
---------------------------------------------------------------
Pair    | 49.319     | 667.12     | 5161.5     |5105.5 |  1.17
Bond    | 0.063524   | 0.082903   | 0.098276   |   3.4 |  0.00
Kspace  | 348.15     | 4871.7     | 5550.3     |1909.2 |  8.57
Neigh   | 649.63     | 651.58     | 653.37     |   3.9 |  1.15
Comm    | 76.689     | 148.19     | 313.54     | 761.1 |  0.26
Output  | 0.037724   | 0.041044   | 0.083291   |   5.6 |  0.00
Modify  | 50475      | 50484      | 50499      |   3.6 | 88.84
Other   |            | 5.074      |            |       |  0.01

Nlocal:    2514.47 ave 3604 max 182 min
Histogram: 3 1 0 0 0 0 1 0 0 10
Nghost:    9741.93 ave 12678 max 8705 min
Histogram: 10 1 0 0 0 0 1 0 1 2
Neighs:    122076 ave 993410 max 6829 min
Histogram: 11 1 1 1 0 0 0 0 0 1

Total # of neighbors = 1831140
Ave neighs/atom = 48.5495
Ave special neighs/atom = 0.162261
Neighbor list builds = 615635
Dangerous builds = 0
write_data        C100_H2_1020watergcmc2ns.data
PPPM initialization ...
  using 12-bit tables for long-range coulomb (../kspace.cpp:321)
  G vector (1/distance) = 0.169301
  grid = 40 9 30
  stencil order = 5
  estimated absolute RMS force accuracy = 0.0275698
  estimated relative force accuracy = 8.30256e-05
  using double precision FFTs
  3d grid and FFT values/proc = 2730 720
WARNING: Neighbor exclusions used with KSpace solver may give inconsistent Coulombic energies (../neighbor.cpp:472)




Total wall time: 57:44:41
