LAMMPS (16 Mar 2018)
#

# variables available on command line

variable        T index 293.15      # K
variable        P index 5      # MPa
variable	    fe index 1.0302
variable        Patm equal ${P}/0.101325       # atm
variable        Patm equal 5/0.101325       

# global model settings

echo               both
units              real
dimension          3
atom_style         atomic
boundary           p p p

read_data         C199H148N2O9.data
  orthogonal box = (0 0 -70) to (201.685 30.2528 70)
  5 by 1 by 1 MPI processor grid
  reading atoms ...
  32936 atoms
pair_style         lj/cut   12.5
pair_modify        shift yes mix arithmetic

# pair_coeff

pair_coeff 	1	1	0.105	3.851
pair_coeff 	2	2	0.105	3.851
pair_coeff 	3	3	0.105	3.851
pair_coeff 	4	4	0.105	3.851
pair_coeff 	5	5	0.105	3.851
pair_coeff 	6	6	0.06	3.5
pair_coeff 	7	7	0.105	3.851
pair_coeff 	8	8	0.06	3.5
pair_coeff 	9	9	0.069	3.66
pair_coeff 	10	10	0.06	3.5
pair_coeff 	11	11	0.044	2.886
pair_coeff 	12	12	0.044	2.886
pair_coeff 	13	13	0.044	2.886
pair_coeff 	14	14    0.072896 2.958

# region

region            soall  block  EDGE EDGE EDGE EDGE -22  22 units box side in

# define groups
group		      ggcmc type 14
0 atoms in group ggcmc
group             wall  type < 14
32936 atoms in group wall

neighbor          2.0 bin
neigh_modify      every 1 delay 1 check yes  exclude group wall wall

#MD settings

variable 	      type14 atom "type==14"
group 	            type14 dynamic ggcmc var type14
dynamic group type14 defined
variable          nH2 equal count(type14)
compute           mtem type14 temp/com
compute_modify    mtem dynamic/dof yes

fix               1  wall nve/noforce  # move linear 0 0 0

# gcmc
fix               2 ggcmc gcmc 100 100 100 14 29494  ${T} 1 0.5 region soall pressure ${Patm} fugacity_coeff ${fe} group ggcmc
fix               2 ggcmc gcmc 100 100 100 14 29494  293.15 1 0.5 region soall pressure ${Patm} fugacity_coeff ${fe} group ggcmc
fix               2 ggcmc gcmc 100 100 100 14 29494  293.15 1 0.5 region soall pressure 49.3461633358006 fugacity_coeff ${fe} group ggcmc
fix               2 ggcmc gcmc 100 100 100 14 29494  293.15 1 0.5 region soall pressure 49.3461633358006 fugacity_coeff 1.0302 group ggcmc

fix               3 type14 nvt temp ${T}  ${T}  100
fix               3 type14 nvt temp 293.15  ${T}  100
fix               3 type14 nvt temp 293.15  293.15  100
fix_modify        3 temp mtem
WARNING: Temperature for fix modify is not for group all (../fix_nh.cpp:1404)

thermo            1000
thermo_style      custom step c_mtem pe ke atoms v_nH2

run               1000000
Neighbor list info ...
  update every 1 steps, delay 1 steps, check yes
  max neighbors/atom: 2000, page size: 100000
  master list distance cutoff = 14.5
  ghost atom cutoff = 14.5
  binsize = 7.25, bins = 28 5 20
  1 neighbor lists, perpetual/occasional/extra = 1 0 0
  (1) pair lj/cut, perpetual
      attributes: half, newton on
      pair build: half/bin/atomonly/newton
      stencil: half/bin/3d/newton
      bin: standard
Per MPI rank memory allocation (min/avg/max) = 6.074 | 6.089 | 6.102 Mbytes
Step c_mtem PotEng KinEng Atoms v_nH2 
       0            0            0            0    32936            0 
    1000     292.4289   -10.719266      225.923    33195          259 
    2000    290.51655   -19.267874    285.23957    33264          328 
    3000    290.12441   -26.696973    341.79763    33331          395 
    4000    282.39642   -31.208841    319.39114    33316          380 
    5000    286.24722   -38.223055    323.65111    33315          379 
    6000     304.5269   -32.627702    368.90484    33343          407 
    7000    304.06077   -42.507865    376.03268    33351          415 
    8000    292.66967   -53.076565    362.59206    33352          416 
    9000    292.58514   -56.277117    346.30327    33334          398 
   10000    305.89778   -49.448517    372.79909    33344          408 
   11000    278.52532   -47.876811    350.49215    33359          423 
   12000     283.5852   -55.648712    369.31413    33373          437 
   13000    295.53302   -53.019368    364.59971    33350          414 
   14000     290.8462   -52.786367    376.28828    33370          434 
   15000     300.4592   -53.241053    390.76468    33371          435 
   16000    293.78617   -60.473652    376.32361    33366          430 
   17000    285.73457    -53.78758    359.65782    33356          420 
   18000    296.87189   -65.368361    382.76248    33368          432 
   19000    309.22469   -62.900061    391.64712    33361          425 
   20000    286.11806     -67.5449    352.78929    33350          414 
   21000    287.75817   -64.106265    369.29536    33367          431 
   22000    289.16451   -67.872756    356.31453    33349          413 
   23000    291.96925   -64.548178    368.18664    33359          423 
   24000    297.93928   -66.384443    389.64662    33375          439 
   25000    279.71341   -64.711284     358.0701    33366          430 
   26000    285.65614   -71.286541    351.11614    33346          410 
   27000    309.25351   -64.739231    378.11396    33347          411 
   28000    298.12771   -59.975364    369.43424    33352          416 
   29000     298.2712   -69.481191    375.40792    33359          423 
   30000    293.91707    -72.66813    369.55117    33358          422 
   31000    280.52338   -75.695888    377.29128    33388          452 
   32000    293.93565   -75.871168    399.89182    33393          457 
   33000    281.55337   -77.637944    379.82187    33388          452 
   34000    276.97928   -69.423916    334.10408    33341          405 
   35000    287.77048   -67.951335    364.89601    33362          426 
   36000    298.15753   -66.481828    383.16573    33368          432 
   37000    290.39645   -73.612281    380.33264    33375          439 
   38000    265.14393   -70.931097    370.56432    33405          469 
   39000    301.03258    -71.41721    411.04073    33394          458 
   40000    292.54601   -75.563773    402.85612    33395          459 
   41000    296.76884   -81.494876    409.95356    33400          464 
   42000    299.05682   -73.832088    395.72702    33380          444 
   43000    274.18586   -71.940912    371.73519    33388          452 
   44000    290.55328   -67.061508    381.45454    33377          441 
   45000    308.51622   -67.968939    429.62435    33404          468 
   46000    284.77305   -71.043313    373.22845    33376          440 
   47000    300.97052   -68.889965    396.89071    33377          441 
   48000    300.78462   -78.013657    397.87077    33380          444 
   49000    274.04525   -71.176056     367.5116    33384          448 
   50000    288.31672   -73.072704    349.39869    33343          407 
   51000    265.64302   -66.415826    316.16615    33334          398 
   52000    302.31278   -66.037922    372.40954    33348          412 
   53000    300.11707   -64.910713     359.4955    33338          402 
   54000    308.86433   -76.336468    401.19741    33370          434 
   55000    291.54517   -69.300801     366.0641    33358          422 
   56000    289.81753   -75.408642    371.26544    33366          430 
   57000    289.47939   -85.106518    417.15423    33419          483 
   58000    320.82235   -77.957126     431.8823    33387          451 
   59000    292.81028    -69.00037    405.55054    33401          465 
   60000    269.01416   -73.980107    355.42831    33379          443 
   61000    280.58478   -80.517227    363.14111    33371          435 
   62000    301.98801   -79.396562    420.68196    33404          468 
   63000    280.31397   -72.319197    372.22394    33382          446 
   64000    302.75029   -71.506121    372.25529    33349          413 
   65000    297.47244   -77.282788    386.68662    33373          437 
   66000    295.54195   -73.799532    341.34079    33324          388 
   67000    277.97157   -76.098324    351.31317    33360          424 
   68000    272.80285   -75.953713    359.21031    33378          442 
   69000    293.98337   -78.403583    384.62036    33375          439 
   70000    301.74141    -71.06339    399.01857    33380          444 
   71000    297.71321   -70.035723    398.19714    33383          447 
   72000    288.48258   -69.082245    366.61502    33361          425 
   73000    289.27502   -74.426421    350.28985    33343          407 
   74000    303.89841   -70.337646    376.96447    33353          417 
   75000    281.98982   -62.879254    344.10135    33346          410 
   76000    303.46498   -72.501805    383.19949    33360          424 
   77000    295.89717   -72.175181    409.72664    33401          465 
   78000    284.50227   -69.392408     392.0723    33398          462 
   79000    283.88063   -71.089267    372.23712    33376          440 
   80000    287.63243   -78.551307    392.91259    33394          458 
   81000    271.72962    -82.31358    360.57013    33379          443 
   82000     291.3359   -92.321392    403.10913    33401          465 
   83000    304.36253   -86.320428    394.94254    33372          436 
   84000    280.23008    -87.57968    394.65474    33408          472 
   85000    301.42214   -72.275371    397.59635    33378          442 
   86000    303.19134   -80.189251    384.26058    33361          425 
   87000    267.39574    -84.06227    333.02676    33354          418 
   88000    264.51739   -80.931902    336.19767    33363          427 
   89000    306.15194   -77.080708    406.38781    33382          446 
   90000    311.19736   -81.745006    412.49065    33381          445 
   91000    284.19993   -86.395281    385.57596    33391          455 
   92000    264.80199   -78.501216    357.18631    33389          453 
   93000    291.00169   -80.579871    371.66347    33363          427 
   94000     307.0006   -86.442292     408.8332    33383          447 
   95000    310.46745   -85.151557    388.05935    33356          420 
   96000    298.21382   -89.285119    403.61248    33389          453 
   97000    297.97878   -93.110622    385.12794    33370          434 
   98000    290.34316   -76.529326    377.81266    33372          436 
   99000     288.1016   -78.971128    364.38787    33361          425 
  100000    302.53799   -74.138149     380.8749    33359          423 
  101000    303.68716   -87.511785     414.5052    33391          455 
  102000    287.44916   -91.613911    373.19653    33372          436 
  103000    279.18639   -93.546222    404.45577    33422          486 
  104000    290.89571   -92.743284    400.79118    33399          463 
  105000    299.23607   -92.614168     401.0025    33386          450 
  106000    296.12628   -93.211153    404.30969    33395          459 
  107000    287.43524   -88.788949    397.22669    33398          462 
  108000    291.65096   -84.943903    352.36373    33342          406 
  109000    320.66945   -82.818616    416.27486    33372          436 
  110000     288.5591   -80.138468     368.9001    33363          427 
  111000    284.72936   -74.095275    346.66919    33344          408 
  112000    295.22492   -85.531011    359.66456    33345          409 
  113000    305.54357   -78.104815    398.99129    33375          439 
  114000    297.30781   -91.795697    380.98479    33366          430 
  115000    282.83164   -81.828883    361.41539    33365          429 
  116000    291.54297   -80.858291    389.78988    33383          447 
  117000    284.26175   -78.993588    404.53623    33414          478 
  118000     279.5357   -75.194753     357.6696    33366          430 
  119000    316.38568   -72.125258    391.78068    33352          416 
  120000    273.75291   -78.342618    368.96113    33389          453 
  121000    288.94841   -80.112463    370.83723    33366          430 
  122000    283.69976     -75.8839    362.40142    33364          428 
  123000    286.69996   -83.088733    397.83245    33401          465 
  124000    268.77861   -78.233692    357.67415    33382          446 
  125000    289.24265   -76.045567    392.94277    33392          456 
  126000    292.62441   -78.510098    393.65973    33388          452 
  127000    304.38611   -85.816968    411.45944    33389          453 
  128000    290.95272   -85.056829    403.52973    33401          465 
  129000    283.45047    -80.55938    366.23472    33369          433 
  130000    303.25412   -77.784241    418.43651    33398          462 
  131000     302.6394   -79.022589    415.62046    33396          460 
  132000    310.64552    -72.74273    429.42795    33400          464 
  133000    278.95574   -79.236286     370.3037    33382          446 
  134000    287.19894   -68.671938    377.41323    33377          441 
  135000    307.95906   -76.424364     391.1657    33362          426 
  136000    270.39145   -82.347384     362.1102    33382          446 
  137000    306.73255   -82.352709    399.76222    33374          438 
  138000    267.14627   -73.959027     353.3539    33379          443 
  139000    293.51428   -79.659714    389.52918    33381          445 
  140000    292.33028   -83.718472    370.77168    33359          423 
  141000    275.78708   -80.046333     367.0302    33383          447 
  142000    289.79752   -86.942739    407.32736    33407          471 
  143000    293.28481   -87.019782    385.89066    33377          441 
  144000    268.51154   -79.402539     345.4817    33367          431 
  145000    304.63468   -96.278523    418.96211    33397          461 
  146000    284.11924   -93.269562    395.30443    33403          467 
  147000    315.38385   -83.859529    428.80439    33393          457 
  148000    296.41003    -94.14778    404.08353    33393          457 
  149000    270.60391   -92.337748    366.35385    33391          455 
  150000    288.32278   -83.983044    374.37833    33371          435 
  151000    294.86864    -80.43692    377.40785    33365          429 
  152000    306.46572   -71.709344    398.12122    33372          436 
  153000    295.30845   -73.911072    416.00345    33409          473 
  154000    288.13015   -89.485249    388.20023    33388          452 
  155000    292.76634   -97.974251    396.14216    33390          454 
  156000    310.60454   -79.512466    433.54073    33403          467 
  157000    302.35731   -81.969306    396.08743    33376          440 
  158000    264.01554   -90.552416    344.38065    33374          438 
  159000    303.68286   -92.674558    379.04479    33355          419 
  160000    283.08171   -95.883018     381.8041    33389          453 
  161000    290.74274     -85.6087    392.22589    33388          452 
  162000    296.70702    -91.51704    417.46723    33408          472 
  163000    303.77811    -83.92692    403.10273    33382          446 
  164000    297.06835   -82.432777    393.44696    33381          445 
  165000    284.73356   -86.107257    385.45165    33391          455 
  166000    278.96685   -75.092106    379.29833    33393          457 
  167000    278.11188   -74.418603    363.69278    33375          439 
  168000     298.4485   -72.266346    388.23087    33371          435 
  169000    300.55466   -75.434322    386.16709    33367          431 
  170000    294.82648   -76.042586    378.74581    33367          431 
  171000    282.50957   -75.109493    381.69986    33390          454 
  172000    292.13033   -74.270108    376.23067    33369          433 
  173000    290.73857   -81.954146    361.48084    33354          418 
  174000    274.53624   -78.631326    368.10923    33385          449 
  175000    311.43331   -68.817069    385.82974    33351          415 
  176000    301.16209   -82.657162    402.25412    33384          448 
  177000    272.82096   -72.380184    369.76464    33391          455 
  178000    296.78792   -71.473228    354.31006    33337          401 
  179000    295.24888   -71.548068    382.68119    33369          433 
  180000     281.4825     -66.0314    361.28437    33367          431 
  181000    287.43263   -79.805056    373.83167    33372          436 
  182000    291.74757   -68.831165     361.2562    33351          415 
  183000    301.99215   -71.162206    390.79206    33369          433 
  184000    304.91401   -60.880272     395.1266    33370          434 
  185000    280.31187   -77.487067     357.6543    33365          429 
  186000    293.25307   -72.841617       359.83    33348          412 
  187000     282.6392   -72.956785      382.478    33389          453 
  188000    290.81249   -71.015315    367.53997    33358          422 
  189000    307.91898   -74.845585    427.36405    33402          466 
  190000    292.38199   -75.819119    348.03509    33335          399 
  191000    291.51184   -66.459281    381.18111    33375          439 
  192000    313.66695   -76.953215    413.77829    33379          443 
  193000    275.32094   -90.332993    390.27719    33412          476 
  194000    283.71413   -75.793575    371.05893    33375          439 
  195000    297.74774   -74.355312    397.03101    33384          448 
  196000    280.26853   -73.977271    355.84366    33362          426 
  197000    292.88957    -77.92888    384.97506    33377          441 
  198000    300.71901   -74.479643    355.55364    33333          397 
  199000     297.9345   -84.837847    380.83992    33365          429 
  200000    289.14817   -81.230435    385.35423    33384          448 
  201000    292.02169   -78.214112    363.02812    33353          417 
  202000    268.02705   -90.943125    374.73308    33404          468 
  203000    301.05673    -88.31501     398.5907    33381          445 
  204000    285.16266   -92.795011    380.37776    33384          448 
  205000    288.47123   -91.141902    376.23553    33373          437 
  206000    297.34476   -85.477376    413.02075    33402          466 
  207000    299.59867   -86.779146    388.86364    33371          435 
  208000    292.24268   -76.337909    391.14922    33384          448 
  209000    284.96291    -71.77443     347.6825    33346          410 
  210000    281.04071   -69.584258    339.46051    33342          406 
  211000    316.91463   -70.806695    398.79037    33358          422 
  212000    282.22866   -75.648569    378.83989    33387          451 
  213000    317.00569   -78.464418    414.15073    33375          439 
  214000    286.88685   -74.011476    378.10535    33379          443 
  215000    283.55449   -69.626326    380.81389    33387          451 
  216000    297.56867   -77.456286    410.81603    33400          464 
  217000    299.77713   -61.480613    372.98047    33354          418 
  218000    279.13837   -80.379306    385.42958    33400          464 
  219000    285.74371   -70.949623    385.25165    33389          453 
  220000    284.84018   -82.757375    371.99179    33374          438 
  221000    284.15834     -75.7997    368.08979    33371          435 
  222000     285.9235   -80.302189    384.52475    33388          452 
  223000    306.63128   -77.737021    411.18363    33386          450 
  224000    299.98918   -79.831844    381.66251    33363          427 
  225000    295.96044   -65.918522    388.38182    33377          441 
  226000    288.86509   -72.269965    368.51577    33364          428 
  227000    302.20019   -65.650024    393.51538    33371          435 
  228000    301.29466   -62.115427    366.15878    33344          408 
  229000    292.78899   -65.809617     378.7863    33371          435 
  230000    278.91031   -69.299203    340.12848    33345          409 
  231000    296.57056   -65.142168    378.23074    33364          428 
  232000    319.47125   -76.972022    417.29403    33375          439 
  233000    286.59633   -58.846336    364.90542    33364          428 
  234000     296.0266   -70.744637    368.53772    33353          417 
  235000    306.89082   -72.840579    399.78316    33374          438 
  236000    269.24981    -74.76237    344.80647    33365          429 
  237000    306.22002   -72.092956    367.77625    33339          403 
  238000    289.05762   -67.321248      349.593    33342          406 
  239000    305.37114   -78.418869    382.56012    33357          421 
  240000    287.81718   -66.016744    366.67681    33364          428 
  241000    287.76288   -71.760944    353.71413    33348          412 
  242000     282.9054   -62.585864    356.53733    33357          421 
  243000     286.1394   -69.803887    380.01148    33382          446 
  244000    294.38726   -64.372056     360.3513    33346          410 
  245000    287.92633   -70.790024    357.55271    33353          417 
  246000    281.87099   -72.538177    357.67968    33362          426 
  247000    287.33716    -78.56692    356.22116    33352          416 
  248000    285.04535   -73.685934    375.49475    33378          442 
  249000    275.52813   -81.541423    361.37503    33376          440 
  250000    278.48363   -80.706827    372.31551    33385          449 
  251000    296.35655   -87.755717    418.18571    33410          474 
  252000    324.68174   -88.291087    461.75366    33413          477 
  253000    290.08747   -84.308134    364.22748    33358          422 
  254000    285.88651   -82.658919    355.30388    33353          417 
  255000    277.57964   -85.185561     356.9199    33367          431 
  256000    283.29871   -85.308398    377.91614    33384          448 
  257000    297.00768   -81.613648    365.30038    33349          413 
  258000    315.23186   -85.584379    412.04594    33375          439 
  259000    300.10819   -88.563106    400.90807    33385          449 
  260000    274.98996   -85.448546     368.7359    33386          450 
  261000    293.56185   -88.861672    411.66444    33407          471 
  262000    286.53799   -82.184703    389.75573    33393          457 
  263000    294.87676   -83.426667    385.78141    33374          438 
  264000    306.84522    -82.68704    431.65188    33408          472 
  265000    282.15828   -77.045114    367.84641    33374          438 
  266000    273.31207   -75.478747    369.36382    33390          454 
  267000    290.33693   -80.343152    354.51283    33346          410 
  268000    316.10103   -76.128439    380.91595    33341          405 
  269000    300.41323   -82.002673    363.63996    33341          405 
  270000    292.04929   -75.269295     379.3182    33371          435 
  271000    289.01602   -76.136293    366.85592    33361          425 
  272000    300.11487    -88.16087    395.63653    33379          443 
  273000    271.07217   -79.543329    374.84435    33400          464 
  274000    299.54472   -84.848141    372.80596    33354          418 
  275000    308.76414   -82.107126     395.0994    33365          429 
  276000    308.48395   -78.602197    419.13435    33391          455 
  277000    286.48924   -81.809347     363.5341    33362          426 
  278000    299.13156   -72.103784    387.76503    33370          434 
  279000    297.87672   -76.372182    403.81647    33391          455 
  280000    284.84267   -82.465787    394.08483    33401          465 
  281000    288.79277    -72.13053    387.04517    33384          448 
  282000     272.5185   -75.317682    346.15548    33363          427 
  283000    309.55003   -86.107686    427.52577    33400          464 
  284000    297.81176   -86.607522    384.95337    33370          434 
  285000    276.42176   -80.161539    375.03476    33390          454 
  286000    286.71835   -81.157921    351.07974    33347          411 
  287000    282.20261   -78.273494    358.41626    33363          427 
  288000    293.40631   -81.770852    385.78017    33376          440 
  289000     300.5179   -84.081803    407.34509    33391          455 
  290000    293.71702    -88.48443    382.14227    33373          437 
  291000    291.18645   -85.807338    375.08427    33367          431 
  292000    276.15434   -86.192907    366.03379    33380          444 
  293000     300.6683    -80.42808    394.54943    33377          441 
  294000    280.48575   -85.952263    360.21887    33366          430 
  295000    265.51606      -84.676    351.96901    33381          445 
  296000    295.18521   -80.142657    376.68122    33364          428 
  297000    308.95875   -80.198424    376.24987    33345          409 
  298000    292.49599    -73.07423    354.35894    33342          406 
  299000     278.9682   -78.317344    349.34307    33357          421 
  300000    281.80668   -72.127992    346.77514    33348          412 
  301000    297.97894   -71.529619    389.64476    33375          439 
  302000    307.98753   -72.823054    391.00151    33362          426 
  303000    287.35853   -78.856604     369.3523    33368          432 
  304000    269.62583   -83.659046    362.66959    33388          452 
  305000    298.45048   -73.162997    392.46041    33377          441 
  306000    278.07269   -74.865107    355.09842    33365          429 
  307000    307.26614   -70.259713    369.42619    33340          404 
  308000    307.96279   -72.437507    382.13153    33352          416 
  309000    287.17997    -81.84065    355.90263    33352          416 
  310000     294.2055   -77.159741    392.87454    33384          448 
  311000    296.12657   -85.346003     378.2023    33364          428 
  312000    284.03697   -89.582518    384.44617    33391          455 
  313000    303.04867   -93.089736     399.7273    33378          442 
  314000    293.91014   -90.279026    402.84153    33394          458 
  315000     295.8536   -93.578632    389.93342    33379          443 
  316000    278.07633   -87.763138    385.01603    33398          462 
  317000    291.39957   -82.084676    376.77042    33370          434 
  318000    289.10473   -88.731602     411.0859    33412          476 
  319000    281.96327    -89.41784      399.181    33411          475 
  320000    291.41845   -95.910022    439.14276    33442          506 
  321000    289.70015   -96.972419    394.76671    33394          458 
  322000     291.8725   -96.872626    417.60015    33416          480 
  323000    305.99291   -86.435588    393.58433    33368          432 
  324000    295.87944   -87.824996     399.4216    33389          453 
  325000    278.60329    -87.00127    352.55048    33361          425 
  326000    286.55348   -79.213532    367.92874    33367          431 
  327000    280.77668   -82.999868    364.36665    33372          436 
  328000    299.25367    -100.9377    438.90428    33428          492 
  329000    283.62524   -95.518209     391.6976    33400          464 
  330000    284.96457   -83.463198    377.79737    33381          445 
  331000    318.24265   -87.180473    440.54598    33398          462 
  332000    287.20225   -84.907717    390.47714    33393          457 
  333000    297.33807    -86.74862    425.01264    33414          478 
  334000    262.17874    -85.52081    364.98654    33404          468 
  335000    295.02295   -92.017534     414.6432    33408          472 
  336000    293.93402   -88.596334    408.04027    33401          465 
  337000    293.78233   -90.927239    389.10798    33380          444 
  338000    290.91677   -88.422718     390.1871    33385          449 
  339000    305.67808   -90.361574    423.12289    33400          464 
  340000    308.82222   -87.886921    425.71764    33399          463 
  341000    298.28131   -87.344461    386.46677    33371          435 
  342000    301.54979   -85.586488    399.53553    33381          445 
  343000    298.85029   -88.525442    408.05303    33395          459 
  344000    289.29028   -98.510405    399.19624    33399          463 
  345000    293.90359   -104.22033    420.62607    33417          481 
  346000    328.19243    -95.25681    479.16706    33426          490 
  347000    290.49126   -93.130363    391.75672    33389          453 
  348000    289.75075   -86.163109    372.29275    33367          431 
  349000     277.8576   -76.887117    354.72421    33364          428 
  350000    296.26718   -77.879035    357.67734    33341          405 
  351000    298.01351   -71.655884       378.83    33362          426 
  352000    293.37961   -76.057003    335.24668    33320          384 
  353000    289.96611   -71.393722    359.20294    33352          416 
  354000    305.72537   -62.586298     379.0578    33351          415 
  355000    298.10172   -65.851694    386.13853    33370          434 
  356000    282.96873   -66.096615     354.2839    33357          421 
  357000    297.61463   -60.495578    364.57674    33347          411 
  358000    299.22982   -65.537509    382.81867    33365          429 
  359000    300.08144   -75.341173     391.9118    33375          439 
  360000    280.07593   -76.780233    359.45129    33367          431 
  361000    307.50571    -82.19626    390.73306    33363          427 
  362000    305.56754   -78.304575    398.14697    33374          438 
  363000    278.02243   -81.562127    385.31206    33401          465 
  364000    292.56343   -85.895619     407.7765    33404          468 
  365000    295.19415    -81.35908    376.04276    33363          427 
  366000    287.07173   -81.201342    365.68118    33364          428 
  367000    311.35916    -79.54502    382.90076    33349          413 
  368000    292.67065   -69.284532    360.97735    33350          414 
  369000    305.97155   -88.073824    385.12405    33359          423 
  370000     286.5321   -79.873529    370.23471    33370          434 
  371000    290.62083   -84.871314    396.48107    33391          455 
  372000    302.26119   -93.551765    400.53186    33381          445 
  373000      280.429   -87.874988    380.55074    33391          455 
  374000    280.14111   -99.739402    376.34286    33386          450 
  375000    312.59675   -92.631985    424.82628    33392          456 
  376000    302.58384   -90.742452    397.89053    33378          442 
  377000     280.7096   -76.984988    369.01571    33378          442 
  378000    314.79505   -84.206139    423.33743    33386          450 
  379000    300.78944    -77.76972    409.15059    33392          456 
  380000     286.4934   -79.121578    380.11557    33380          444 
  381000    298.98179   -74.654634    395.63562    33380          444 
  382000    298.77669   -83.679229    389.31367    33374          438 
  383000    297.17338   -81.803213    406.83547    33396          460 
  384000    308.95676   -78.453746    414.97454    33387          451 
  385000     317.1744   -75.882428    405.32127    33365          429 
  386000    304.98174   -74.711234    405.81947    33382          446 
  387000    296.98919   -72.896835    412.09303    33402          466 
  388000    286.88943    -77.10471    388.29737    33390          454 
  389000    302.64922   -80.773518     373.6533    33349          413 
  390000    266.83645   -76.809568    351.96868    33378          442 
  391000    287.29545   -76.225218    361.16503    33358          422 
  392000    286.85524   -81.610189     371.8739    33371          435 
  393000    296.10153   -81.405389    394.03468    33383          447 
  394000    297.21556   -88.631859    396.90906    33385          449 
  395000    295.73066   -77.111781    393.54095    33383          447 
  396000    310.94767    -80.39005     408.4222    33377          441 
  397000    286.90719   -96.867583    398.05592    33402          466 
  398000    297.40131   -97.682024     433.0216    33424          488 
  399000    276.83681   -95.739212    380.54484    33398          462 
  400000    285.48437   -93.241752    391.53973    33397          461 
  401000     290.3823   -97.467251     370.2421    33364          428 
  402000    300.75573   -96.922251     408.9627    33393          457 
  403000    292.47668   -92.840959     415.6437    33413          477 
  404000    291.82526   -75.954548    417.50494    33416          480 
  405000    272.40632    -87.90332    360.67785    33380          444 
  406000    285.10068   -69.809704     349.0734    33347          411 
  407000    305.30386    -78.17784    362.62438    33333          397 
  408000    294.78263   -74.131789    369.67983    33356          420 
  409000    285.31243   -83.678676    369.35656    33371          435 
  410000    313.87282   -88.098571    416.84445    33382          446 
  411000    292.05094   -86.470004    378.12237    33370          434 
  412000    285.10484   -81.314429    372.05356    33373          437 
  413000    279.11179   -69.129959    364.77278    33375          439 
  414000    289.84075   -82.973002    388.03692    33385          449 
  415000    294.70976   -81.936769     369.4241    33356          420 
  416000    269.61443   -80.660386    340.96937    33359          423 
  417000    275.62439   -69.812566    376.64765    33395          459 
  418000    303.07569   -81.313274    395.35231    33374          438 
  419000    306.88177   -87.283594    393.47017    33367          431 
  420000    284.80157   -82.207025    379.75908    33383          447 
  421000     288.9922    -76.08788    358.94966    33353          417 
  422000    277.79671   -76.237557    344.36242    33351          415 
  423000    297.46001    -80.21892    380.99726    33365          429 
  424000    294.45442   -72.411837    390.72657    33380          444 
  425000    288.20007   -76.044571    379.25747    33377          441 
  426000    320.80921   -75.535335    433.05683    33389          453 
  427000    300.96073   -88.856572    434.38484    33421          485 
  428000    270.60831   -87.650461     381.0279    33408          472 
  429000    301.62768   -82.981409    396.48039    33376          440 
  430000    301.64421   -89.078352    385.87185    33366          430 
  431000    280.15429   -91.434886    354.83242    33360          424 
  432000    281.75892   -91.891691    399.86098    33412          476 
  433000    294.55225    -94.38661    403.33245    33396          460 
  434000     302.0296   -90.089663    384.79002    33363          427 
  435000    292.55108   -90.545834    387.10976    33379          443 
  436000    299.56385   -84.441668    397.95369    33382          446 
  437000    304.82945   -84.430765    413.92481    33392          456 
  438000    301.61281   -101.25495    411.02799    33394          458 
  439000    313.90929   -94.939879    432.32164    33398          462 
  440000    288.88626   -94.088314    383.46301    33382          446 
  441000    304.46147   -87.436987    421.52115    33400          464 
  442000    285.36467   -81.721558    406.28153    33411          475 
  443000    291.58593   -87.694684    384.18937    33378          442 
  444000    295.63887   -91.731986    373.84386    33361          425 
  445000    278.67194   -86.575218    365.69119    33376          440 
  446000    301.82338   -83.987274     402.4921    33384          448 
  447000      277.952   -77.708723    369.10768    33381          445 
  448000    296.50692   -86.638299     396.1083    33384          448 
  449000    314.51055   -87.452663    439.18097    33404          468 
  450000    279.96221   -84.295843    378.25761    33389          453 
  451000    273.28641   -82.468676    356.96247    33375          439 
  452000     295.9424    -88.54266    409.74093    33401          465 
  453000    310.68701   -85.444782    414.05663    33384          448 
  454000    298.80281   -78.735501    394.00156    33376          440 
  455000    302.65548   -74.505646    409.50182    33390          454 
  456000    288.23152   -79.270421    373.28706    33371          435 
  457000    289.40813   -79.022598    368.94767    33364          428 
  458000    276.45873   -77.999065    364.01371    33378          442 
  459000    291.39823   -78.857435    401.83861    33399          463 
  460000    296.56482   -70.397195    374.11538    33360          424 
  461000    290.52556   -69.943608    370.02818    33362          426 
  462000    286.78525   -79.522959    358.02463    33355          419 
  463000    294.72861   -77.117429    352.26258    33337          401 
  464000    298.71856   -76.588059    361.69794    33343          407 
  465000    286.91266   -83.595548    369.86017    33369          433 
  466000    294.87607   -81.249955    398.52897    33389          453 
  467000    300.89779   -75.684845    406.73269    33390          454 
  468000    285.88008   -86.178973    403.95608    33410          474 
  469000    297.81774   -99.195636    407.72761    33396          460 
  470000    293.94113   -89.063615    418.07171    33413          477 
  471000     294.1276   -88.768185     391.0232    33380          444 
  472000    293.81078   -79.309417    394.88489    33386          450 
  473000    295.37522   -89.250818    435.61308    33428          492 
  474000    315.67845   -86.198927    373.77656    33333          397 
  475000    303.99446   -93.867207    397.18431    33374          438 
  476000    291.77341   -94.865489    396.81133    33392          456 
  477000       287.76    -89.17595    381.15205    33381          445 
  478000     304.7527   -89.550621    405.22982    33382          446 
  479000     283.6366   -91.634189     393.1777    33402          466 
  480000     279.8419   -95.148016    351.69076    33357          421 
  481000    310.19557   -85.431913    354.26491    33320          384 
  482000    286.08987   -72.214974    353.34392    33351          415 
  483000    302.54694    -62.94931    381.42729    33357          421 
  484000    304.81508   -70.761542    372.89219    33347          411 
  485000    298.01114   -81.063469    382.86212    33367          431 
  486000    273.17967   -76.220414    337.41328    33350          414 
  487000    307.31891   -72.282605    382.35879    33353          417 
  488000    271.08886   -78.224582     366.9476    33388          452 
  489000     300.3351   -80.150098    406.58876    33390          454 
  490000    292.63363   -79.657249    382.56181    33374          438 
  491000    283.07865   -66.923901    355.40158    33358          422 
  492000    299.07759   -72.726207    375.96116    33358          422 
  493000     291.5418   -79.955504    403.60482    33401          465 
  494000    303.15342   -79.300525    392.58304    33371          435 
  495000    314.87039   -77.937334    407.42471    33371          435 
  496000    276.14446   -73.492908    368.25351    33381          445 
  497000     285.9449   -72.916129    372.07433    33373          437 
  498000    293.47569   -65.293314    368.11256    33357          421 
  499000    295.47521   -65.112595    371.86127    33359          423 
  500000    303.71398   -74.974039    354.82204    33328          392 
  501000    305.70833   -68.076782    364.43746    33334          398 
  502000      302.083   -72.189928    383.17383    33362          426 
  503000    286.89599    -80.17984    396.73327    33400          464 
  504000    285.71498   -80.345324    396.41638    33401          465 
  505000    292.78759   -84.172849    393.73963    33387          451 
  506000    276.48781   -81.238446    366.00858    33380          444 
  507000    289.38763   -82.601067    384.23338    33382          446 
  508000     270.5398   -67.504676    336.79436    33354          418 
  509000    310.64875   -65.986336    387.20085    33355          419 
  510000    291.19626   -65.609999    389.05175    33384          448 
  511000    285.76838    -73.26089    376.09842    33377          441 
  512000    287.06563   -80.370231    377.62615    33378          442 
  513000    296.00043   -74.434171    383.36061    33371          435 
  514000    290.24202    -76.17901    378.40042    33374          438 
  515000    295.06842   -71.494563    365.91384    33349          413 
  516000    284.76096   -70.786016    360.05544    33360          424 
  517000    305.52495   -76.763968    388.93675    33363          427 
  518000    298.74299   -66.564477    381.60999    33363          427 
  519000    298.66193   -72.183631    374.37319    33357          421 
  520000    299.67775   -70.493147    394.40025    33378          442 
  521000     295.4248   -78.895244    370.93417    33358          422 
  522000    295.99857   -68.432945    385.50223    33373          437 
  523000    286.35207    -70.82863    374.64821    33375          439 
  524000    285.09735   -70.990645    365.50132    33365          429 
  525000    278.37999   -84.924101    358.46353    33368          432 
  526000    278.26251   -82.824729    371.47992    33384          448 
  527000    293.69002   -82.318838    387.06374    33376          440 
  528000     317.1817   -84.283509     403.6124    33363          427 
  529000    285.84208   -75.026844     363.5112    33362          426 
  530000    296.29659    -77.89082    361.34367    33346          410 
  531000    294.00671   -68.331991    390.99617    33382          446 
  532000     268.8954   -74.351166    334.24405    33352          416 
  533000    294.02421   -82.733287    380.03085    33369          433 
  534000    315.37257   -68.830411    394.02658    33356          420 
  535000    290.41326   -72.025531    341.97885    33332          396 
  536000    284.36306   -73.733177    359.87242    33361          425 
  537000    281.79979   -67.407441    366.09011    33372          436 
  538000    278.74236   -73.674995    353.62346    33362          426 
  539000    289.79881   -73.513648    347.25573    33336          400 
  540000    298.68865   -66.748594    358.85937    33340          404 
  541000    290.72975   -71.764364    365.89754    33359          423 
  542000    302.55896   -73.587261    380.47922    33358          422 
  543000    304.48106   -77.876496    410.87345    33389          453 
  544000     291.3417   -81.820709    389.69452    33384          448 
  545000    302.90424   -84.208014    400.89371    33376          440 
  546000    300.41787   -81.235876    385.93863    33367          431 
  547000    303.75503   -85.677364    390.14654    33366          430 
  548000     301.7979   -71.258813    419.97402    33403          467 
  549000    282.06186   -81.707349     396.5995    33406          470 
  550000     280.5889   -81.796841    345.11637    33349          413 
  551000    312.08435   -81.624039    391.18165    33357          421 
  552000    288.33238   -83.618863    360.11519    33354          418 
  553000    287.65579   -73.308521     382.1691    33380          444 
  554000    307.97121   -69.678039    393.54158    33365          429 
  555000     309.6349   -83.692712    388.97288    33358          422 
  556000    279.21339   -72.027585    354.61796    33363          427 
  557000     283.2626   -72.593174    328.49384    33325          389 
  558000    296.67445   -75.852199    378.09608    33364          428 
  559000    305.26192    -72.93607    386.81051    33362          426 
  560000    307.22939   -80.806625    407.66485    33380          444 
  561000    284.32495   -76.050015    349.65047    33349          413 
  562000    288.76284   -78.853984    380.12846    33377          441 
  563000    290.54732   -88.740936     374.3316    33369          433 
  564000    290.97776   -88.668692    412.49187    33411          475 
  565000    304.67071   -87.087374    440.92747    33422          486 
  566000    278.85747   -87.018157    373.73773    33384          448 
  567000    304.91793   -83.198487    412.41438    33390          454 
  568000     305.8757   -80.730537    369.79728    33342          406 
  569000    278.85986   -76.398581     343.5821    33350          414 
  570000    284.24078   -72.608323    382.89448    33388          452 
  571000    294.16806   -84.251429    390.07898    33381          445 
  572000     285.1779   -85.440516     386.1555    33391          455 
  573000    277.89597   -86.592134    360.48965    33372          436 
  574000    292.20323   -82.005638    393.44256    33387          451 
  575000    293.09846   -83.767167    361.37777    33350          414 
  576000    306.92977   -77.553231    416.47543    33391          455 
  577000    279.59581   -83.421349    364.74206    33374          438 
  578000    308.77169   -85.892511    410.73091    33383          447 
  579000    301.04847   -77.103653    382.50842    33362          426 
  580000     295.1953   -77.829878    391.79302    33381          445 
  581000     300.3931   -86.632428    405.74416    33389          453 
  582000    287.88578   -82.852646    412.24866    33416          480 
  583000    295.26534    -84.45976    391.68056    33379          443 
  584000    298.93719   -80.718877    383.16969    33365          429 
  585000     289.6796   -68.866634    365.39803    33358          422 
  586000    298.09154   -84.436468     394.5371    33379          443 
  587000    274.96579   -87.083957    338.53308    33348          412 
  588000    285.32954   -76.160326    365.67933    33366          430 
  589000    287.61055   -74.024943    358.03291    33354          418 
  590000    267.17719   -71.333041    354.33143    33379          443 
  591000    296.32279   -84.865452    398.53223    33387          451 
  592000    290.92069   -83.914593    373.46964    33367          431 
  593000    308.44248   -79.603708    390.32736    33359          423 
  594000     283.3821   -72.790227    349.04469    33350          414 
  595000    307.29489   -83.749755    424.23633    33400          464 
  596000    304.61749   -80.943128      390.962    33367          431 
  597000    292.91616   -86.437202    409.99704    33406          470 
  598000    281.88796   -82.927105    406.13264    33420          484 
  599000      308.435   -84.819237    449.25141    33424          488 
  600000    285.01258   -98.285778    397.62206    33404          468 
  601000    278.60862   -81.521846    374.36155    33387          451 
  602000    286.00415   -81.994633    399.50315    33404          468 
  603000    278.29891   -76.396649    368.44159    33380          444 
  604000    288.46801   -84.273699    414.00366    33418          482 
  605000    272.92545   -83.620447     399.8546    33427          491 
  606000    291.61283   -90.923019    414.05661    33413          477 
  607000    289.64427   -96.536611    397.93996    33397          461 
  608000    288.19141    -76.36244    385.34358    33384          448 
  609000    279.41661   -77.701533    368.56105    33379          443 
  610000    287.03554   -71.283265    379.58298    33380          444 
  611000    300.28024   -79.636917    396.38744    33379          443 
  612000    309.89702   -72.299254    393.15263    33362          426 
  613000    289.52904   -72.896749    370.12526    33364          428 
  614000     276.0398   -76.203148    375.60891    33393          457 
  615000    283.59385   -68.960694     375.9292    33380          444 
  616000    288.52974   -68.330358    372.96532    33368          432 
  617000    291.59385   -83.292137    383.97751    33378          442 
  618000    301.22068   -66.628385    378.77263    33358          422 
  619000    289.36437   -68.964314    363.74697    33358          422 
  620000    273.56478   -62.482178    344.25407    33359          423 
  621000    307.24472   -70.292017    397.13979    33370          434 
  622000    304.73749   -75.269503    398.40747    33375          439 
  623000     282.5757    -60.47801    362.19543    33367          431 
  624000    292.99592   -58.336427    366.35024    33356          420 
  625000    294.56887   -57.339412     338.6984    33321          385 
  626000    286.52002   -64.764768    339.10089    33334          398 
  627000    282.29805   -75.271021    344.37727    33345          409 
  628000     277.4653    -72.52488    366.85685    33379          443 
  629000    293.73447   -78.423362     369.3051    33357          421 
  630000    302.97781   -79.658091    403.29866    33383          447 
  631000    278.73524   -72.079354    345.75453    33352          416 
  632000    302.46304   -70.401467    402.67257    33383          447 
  633000    289.90657   -72.512221    373.64877    33369          433 
  634000    273.75228   -62.750383    341.92349    33354          418 
  635000    290.19384   -68.381419    363.53258    33356          420 
  636000    291.15849   -58.673781    375.55035    33368          432 
  637000    282.76453    -55.10033    361.75799    33366          430 
  638000    297.00903   -65.881768    396.46524    33384          448 
  639000    300.37331   -59.832673      366.499    33345          409 
  640000    301.41256   -53.573587    361.99207    33339          403 
  641000    284.51774    -66.09226    348.03132    33346          410 
  642000    314.62558   -62.318688    396.49062    33359          423 
  643000     321.3761   -67.939819    421.36188    33376          440 
  644000    267.10915    -67.85258    357.05606    33384          448 
  645000    290.05327   -67.661582    385.31578    33382          446 
  646000    314.41669    -65.98389     372.4413    33334          398 
  647000    289.57749   -72.014918    345.23878    33336          400 
  648000    294.44395   -63.602698    360.13247    33347          411 
  649000    281.35643   -71.914986    362.00594    33368          432 
  650000     288.5333   -65.523422    377.68379    33375          439 
  651000    289.11216   -71.876842    372.72071    33368          432 
  652000    294.36179   -76.437873    375.22827    33363          427 
  653000    284.46211   -77.566428    364.90075    33366          430 
  654000    281.49725   -62.767079    359.50847    33361          425 
  655000    274.50685   -70.665876    361.12423    33378          442 
  656000    270.70367   -75.784171    358.74743    33379          443 
  657000    300.09429   -79.861178    403.40785    33387          451 
  658000    295.20998   -76.834756    387.50084    33377          441 
  659000    287.30027   -77.412672     361.7502    33359          423 
  660000    304.24379   -76.495753    388.03257    33364          428 
  661000    284.83079   -71.490379    339.82688    33337          401 
  662000    297.79967   -72.889126    386.05532    33370          434 
  663000    299.85028   -76.879115    379.26319    33360          424 
  664000    291.38583   -68.394729    360.47656    33352          416 
  665000    272.22967   -65.919464    345.45439    33361          425 
  666000     284.6748   -54.232206    360.34111    33361          425 
  667000    292.10619   -66.467091    357.92834    33348          412 
  668000    288.09224    -64.88175    359.65389    33355          419 
  669000    297.54456   -67.802659    391.23967    33378          442 
  670000    291.52936   -68.806906    388.05341    33383          447 
  671000    280.08845   -64.967977    340.29698    33343          407 
  672000    290.14603   -63.597438    369.24786    33363          427 
  673000    289.73824    -67.59953    362.13761    33355          419 
  674000    298.32942   -65.959619    373.34707    33356          420 
  675000    301.51886   -62.503862    370.06343    33348          412 
  676000    282.52219   -66.552856    357.14017    33361          425 
  677000    306.67671   -79.477647    417.11549    33391          455 
  678000     302.8829   -75.263342    377.51676    33353          417 
  679000    305.99727   -75.033666    405.90959    33381          445 
  680000    299.55744   -86.018337    414.80288    33400          464 
  681000    312.05551    -67.70369    407.28892    33374          438 
  682000    295.14782   -75.249169    396.27953    33387          451 
  683000    294.92236   -68.277065    370.74339    33358          422 
  684000    278.70986   -68.086575    376.94627    33389          453 
  685000    303.74066   -70.199973    421.45263    33402          466 
  686000     283.6257   -64.087512    386.24713    33392          456 
  687000    291.06924   -76.482882    379.33454    33374          438 
  688000    291.10267   -73.705934    375.90035    33370          434 
  689000    299.42939   -79.431389    400.18221    33385          449 
  690000    291.25712   -68.237002    395.91169    33392          456 
  691000    310.39057   -69.160359    415.67358    33385          449 
  692000    292.84891   -69.716374    371.42777    33361          425 
  693000    291.30968   -58.204569     360.1291    33350          414 
  694000    296.89454   -72.635714    378.10159    33362          426 
  695000      286.229   -67.251859    350.82407    33348          412 
  696000    297.17544   -68.183486    384.65074    33371          435 
  697000    305.87374   -56.041853    370.64543    33343          407 
  698000     302.9908   -71.552693    421.77632    33403          467 
  699000    290.09743   -65.338658     387.8379    33385          449 
  700000    311.05288   -72.870105     397.7837    33366          430 
  701000     289.1499    -71.06191    378.98643    33376          440 
  702000    302.34751   -67.670102    379.26085    33356          420 
  703000    298.00567   -57.035713    359.16488    33340          404 
  704000    267.75985   -71.381832    359.78453    33387          451 
  705000    316.98797   -70.904506    410.92072    33371          435 
  706000    291.46471   -72.306533     381.8382    33375          439 
  707000     283.5047    -68.71095    368.03877    33372          436 
  708000    296.11194   -74.463726    367.45476    33351          415 
  709000    281.30837   -71.018931    356.63227    33361          425 
  710000    280.11001    -80.84305     361.9441    33370          434 
  711000    284.54047     -85.0327    362.27993    33364          428 
  712000     280.1873   -69.635852    378.05471    33389          453 
  713000    305.04365   -85.577241    409.53943    33387          451 
  714000     272.8292   -86.378855    393.04185    33420          484 
  715000    294.17256   -86.954135    393.04982    33384          448 
  716000     320.3026   -91.857289    432.57543    33389          453 
  717000     281.3096   -89.790171    369.38768    33377          441 
  718000    273.03196   -85.384219    360.75445    33380          444 
  719000    275.48632   -88.444552    373.64223    33391          455 
  720000    295.33243   -84.778256    406.91454    33399          463 
  721000     293.4589   -74.947509    385.86861    33378          442 
  722000    310.16553   -79.064649    400.53357    33370          434 
  723000    280.02958   -80.841896    372.46819    33380          444 
  724000    272.77183    -87.32398    356.44978    33375          439 
  725000    306.67538    -71.20958    404.27853    33379          443 
  726000     290.8672   -77.707274    355.09031    33346          410 
  727000    279.14463   -74.421577    360.37925    33369          433 
  728000    289.17171   -77.088426    384.49304    33381          445 
  729000    287.61717   -78.913188    394.69432    33397          461 
  730000    307.90128   -69.120606    413.90105    33386          450 
  731000    292.35673   -62.449095    415.33049    33413          477 
  732000    297.22231   -63.781205    376.63259    33360          424 
  733000    284.85253   -67.019974     382.0743    33386          450 
  734000    286.81817   -80.455654    371.23515    33371          435 
  735000    299.08824    -74.47284    356.24546    33336          400 
  736000    288.91412   -70.413546    363.96104    33359          423 
  737000    269.05045   -81.595615    346.17392    33368          432 
  738000      304.083   -78.619243    379.91446    33356          420 
  739000    290.54606   -80.130749    383.54191    33379          443 
  740000    258.79135    -83.73662    351.82705    33392          456 
  741000    285.80856   -72.989911    388.18016    33392          456 
  742000    303.87906   -85.291684    412.73071    33392          456 
  743000    283.75991   -82.670492    380.03451    33386          450 
  744000    300.88216   -87.214316    384.42713    33365          429 
  745000    309.85118   -88.606712    408.56963    33379          443 
  746000    309.02201   -74.672233    405.31788    33377          441 
  747000    315.51499   -77.772855    415.11553    33377          441 
  748000     284.4657   -79.837905    373.84684    33377          441 
  749000    298.63561   -89.483243    391.18699    33375          439 
  750000    287.82112    -83.62217    383.53777    33382          446 
  751000    301.79354   -80.897528    386.54587    33366          430 
  752000    291.28487   -84.398297     371.7551    33365          429 
  753000    289.98594   -78.936817    376.27933    33372          436 
  754000    288.09474   -81.786488    369.94834    33367          431 
  755000    258.61729   -75.431932     325.8831    33359          423 
  756000    297.65629   -85.197054    395.84556    33382          446 
  757000    298.41748   -80.291891    372.26392    33355          419 
  758000    290.37913   -80.783098    355.03205    33345          409 
  759000    285.09713   -80.032909    374.45183    33376          440 
  760000    298.92913    -82.43624    373.54792    33356          420 
  761000    295.72512   -87.082466    388.89209    33376          440 
  762000    285.08634   -78.321889    378.42646    33379          443 
  763000    291.81671   -82.377277    376.08167    33368          432 
  764000    266.70116    -85.18355    352.70055    33380          444 
  765000    287.65681    -69.50635    363.26638    33359          423 
  766000    267.32586   -89.518966     344.7756    33366          430 
  767000    290.40002   -81.259107    368.66763    33362          426 
  768000    273.07375   -81.539281    371.24639    33393          457 
  769000    275.47286   -86.150241     378.0426    33397          461 
  770000    278.24113    -83.89042    374.04088    33387          451 
  771000    302.11293   -79.730275    374.94155    33352          416 
  772000    284.84793   -77.465116    353.37795    33350          414 
  773000    316.40867   -67.374534    410.57346    33372          436 
  774000    302.67551   -74.706485    404.76292    33385          449 
  775000    290.10103   -72.323416    356.74275    33349          413 
  776000    283.11992   -69.424437    383.68556    33391          455 
  777000    318.22748   -78.253158    422.71362    33382          446 
  778000    303.08441   -74.496928    395.76699    33375          439 
  779000    305.03024   -68.860045    420.65242    33398          462 
  780000    280.39146   -63.982969    347.54209    33352          416 
  781000    290.98367   -66.081254    363.05018    33355          419 
  782000    275.77342   -68.280957    320.10418    33326          390 
  783000    294.58511   -61.263444    359.97158    33346          410 
  784000    286.21519   -74.076319    347.46751    33342          406 
  785000    292.13707   -61.068316    350.94103    33339          403 
  786000    283.75629   -59.045715    376.40471    33381          445 
  787000    298.89454   -67.704414    374.84689    33356          420 
  788000    308.92507   -67.854729    414.09731    33386          450 
  789000    297.58609   -70.220841    376.60745    33361          425 
  790000     273.9505   -71.465915     355.1413    33371          435 
  791000    275.86018   -80.705436    385.60133    33405          469 
  792000    301.45995   -88.098183    409.23684    33392          456 
  793000    313.39637   -70.906758    406.47008    33370          434 
  794000    288.40798   -75.488094    377.67749    33376          440 
  795000    296.46971   -82.649073    376.62013    33362          426 
  796000     271.3678   -93.484736    367.13109    33389          453 
  797000    298.88388    -79.08754    409.05853    33396          460 
  798000    301.06037   -81.828132    402.10379    33385          449 
  799000    288.06061   -73.330138    389.13944    33388          452 
  800000    298.87394    -77.93669    390.22159    33374          438 
  801000    293.41945   -80.974859    387.99171    33379          443 
  802000    280.68831   -80.363603    371.16988    33380          444 
  803000    313.77945   -77.102484    400.03728    33364          428 
  804000    285.78436    -69.58609    361.44201    33361          425 
  805000    283.32388   -76.370663    363.57219    33367          431 
  806000    296.17842   -81.959339    390.81556    33378          442 
  807000    307.49947   -82.001857    402.64182    33376          440 
  808000    301.72876   -80.134579    398.73267    33380          444 
  809000     288.9076   -87.880241    414.55354    33417          481 
  810000     272.4765   -89.469354    376.55899    33400          464 
  811000    309.29275   -86.294874     461.6211    33436          500 
  812000    291.58827   -95.107605    414.00555    33413          477 
  813000    301.99154   -95.364465    424.18402    33408          472 
  814000    290.12277   -91.766085    381.62636    33377          441 
  815000    292.70808    -79.40359    388.56717    33382          446 
  816000    308.50301   -84.153527    408.62448    33381          445 
  817000    297.02473    -77.36792    408.67133    33398          462 
  818000    294.05192   -83.881139    382.40183    33373          437 
  819000    291.53965   -81.085807    393.09443    33388          452 
  820000    273.82567   -68.047343    336.88754    33349          413 
  821000    283.72469   -68.065027    352.63466    33353          417 
  822000    292.11362   -67.952245    401.54969    33398          462 
  823000    291.45846   -66.269837     373.1898    33365          429 
  824000     280.6008   -76.663426    367.81704    33374          438 
  825000     303.0606   -67.510202    386.05683    33364          428 
  826000    284.31248   -68.257522    341.69072    33340          404 
  827000    290.07034   -72.636949    383.61049    33380          444 
  828000    289.49662   -69.569578    393.59258    33393          457 
  829000    300.21257   -73.685062    392.53378    33374          438 
  830000    297.39604   -78.733312    384.72506    33366          430 
  831000    294.67564   -91.992113    398.15752    33389          453 
  832000    292.00366   -86.938871     392.7663    33388          452 
  833000    281.51437   -88.048772    384.93746    33395          459 
  834000    309.84753   -84.585578    412.91586    33384          448 
  835000    291.20659   -92.651177     401.1049    33398          462 
  836000    280.98606   -86.900311    375.63685    33385          449 
  837000    277.87202   -80.966583    363.30237    33374          438 
  838000    281.63718   -85.138984     378.1877    33386          450 
  839000    289.86701   -90.489587    395.26121    33392          456 
  840000     304.5671   -85.800995    424.26492    33403          467 
  841000    286.34526   -72.037361     384.4658    33387          451 
  842000    295.92129   -75.706063    393.01367    33382          446 
  843000    301.14609   -75.537655    389.53168    33370          434 
  844000    292.28277   -81.656296    381.86356    33375          439 
  845000      284.521   -85.354015    357.25711    33354          418 
  846000    283.99551   -87.442213    372.70952    33376          440 
  847000    314.54193   -74.388931    406.40177    33369          433 
  848000    288.50029   -68.528247    365.93832    33359          423 
  849000    291.74841   -63.861796    328.97025    33314          378 
  850000    293.00525   -59.238733    341.86644    33328          392 
  851000    268.65089   -51.700651    343.07157    33364          428 
  852000    296.77751   -62.863262    340.03467    33320          384 
  853000    297.13291   -59.434779    354.61565    33336          400 
  854000    313.95889   -71.279682    403.70654    33368          432 
  855000    320.24274    -76.08473     432.9293    33388          452 
  856000    286.85193    -68.19956    385.83514    33387          451 
  857000    289.41963   -64.034626    370.26267    33366          430 
  858000    283.34235    -58.00301    356.39992    33358          422 
  859000    322.93223   -58.404789    381.72323    33333          397 
  860000    295.59311   -57.850521    374.09233    33361          425 
  861000    286.72852   -68.993025    333.31887    33326          390 
  862000    287.44499   -77.466533    364.48724    33358          422 
  863000    298.20465   -68.209955    391.62747    33377          441 
  864000    292.45558   -71.880971    398.69848    33394          458 
  865000    276.33563   -71.836328    377.31446    33395          459 
  866000    288.32266   -69.868309    386.33813    33386          450 
  867000    299.54431   -77.087319       405.67    33390          454 
  868000    292.47019    -67.58235    403.67109    33400          464 
  869000    291.00669   -80.969291    386.71528    33382          446 
  870000    303.51225   -83.418758    392.21399    33369          433 
  871000    312.36422   -87.099334    423.12589    33391          455 
  872000    299.57288   -82.746816    415.08974    33401          465 
  873000     312.3871   -80.850884    424.92377    33393          457 
  874000    304.69777   -79.106806    413.30012    33391          455 
  875000    271.54407   -79.486172    357.28208    33378          442 
  876000    281.61581   -80.931305     371.1661    33379          443 
  877000    293.67279   -81.887892    400.81219    33394          458 
  878000    288.93771   -77.984632    396.90417    33397          461 
  879000    302.43159   -78.136129    388.64447    33367          431 
  880000    278.30515   -83.681798    358.75217    33368          432 
  881000    275.10123   -78.703138    366.14922    33381          445 
  882000     289.3514   -73.627406    396.78117    33396          460 
  883000    302.30735   -83.101217    395.17797    33375          439 
  884000    299.01193   -80.228399    401.32794    33386          450 
  885000    294.19179    -73.09892    415.73159    33408          472 
  886000    301.36203    -64.49496    405.52673    33388          452 
  887000    290.44303   -64.907929    379.67568    33375          439 
  888000    307.58339   -71.574346    407.31839    33381          445 
  889000    275.09844    -60.89837    343.38729    33355          419 
  890000    284.32682   -70.819554    347.13809    33346          410 
  891000    302.62378   -58.218979     410.3367    33391          455 
  892000    285.05873    -59.06573    356.92029    33355          419 
  893000    293.20342   -63.792408    372.67334    33362          426 
  894000    293.23839   -64.436008    370.86939    33361          425 
  895000    297.61029   -66.216319    370.18239    33354          418 
  896000    291.55035   -61.150243    352.98688    33343          407 
  897000    288.99024    -63.65307    364.62036    33360          424 
  898000    303.33001   -68.836856    377.39484    33354          418 
  899000    292.83372   -62.915924    346.24597    33333          397 
  900000    282.89345   -66.560203     368.9249    33374          438 
  901000    303.17467   -68.538637    386.08062    33363          427 
  902000    296.16804   -58.912768    366.96308    33352          416 
  903000    293.34749   -69.648088     379.8517    33371          435 
  904000    293.49757   -59.713773    390.42373    33383          447 
  905000    302.85267   -61.632255    396.37434    33375          439 
  906000    276.78007   -67.490664    367.40822    33381          445 
  907000    309.34571   -71.892375    402.22962    33373          437 
  908000    282.18598   -72.424603    344.66762    33344          408 
  909000    296.74675   -78.821475    363.42522    33347          411 
  910000    309.50127   -72.966389    381.37645    33350          414 
  911000    279.24553   -66.519935    361.81092    33370          434 
  912000    316.07941   -77.664055     400.1204    33361          425 
  913000    288.17231   -76.435611     399.0791    33400          464 
  914000    281.92314   -72.339607    385.45011    33394          458 
  915000     293.2189   -74.880612    397.04276    33390          454 
  916000    281.53292   -70.353781    359.40717    33365          429 
  917000    308.45903   -70.390202    396.95758    33368          432 
  918000    268.21532    -68.92308    334.80741    33355          419 
  919000    286.65971   -78.837273    360.19865    33358          422 
  920000    293.08458    -68.58242    363.92202    33353          417 
  921000     297.0909   -63.815592    353.28575    33335          399 
  922000    289.46341   -60.710864    366.38865    33360          424 
  923000    290.33633    -66.46282    354.08842    33344          408 
  924000    305.54309   -74.751608    409.92227    33387          451 
  925000    294.57855   -70.966915    418.83486    33411          475 
  926000     285.4056   -73.790533    387.79156    33392          456 
  927000    313.96069   -70.116224      385.836    33348          412 
  928000    280.78904   -68.520093    337.36128    33340          404 
  929000    294.61701   -74.024767    352.23355    33337          401 
  930000    314.87811   -78.906043    413.33763    33377          441 
  931000    292.75196   -74.152836    391.63882    33385          449 
  932000    269.14571   -83.706663    373.85778    33402          466 
  933000    306.28181   -68.570113    383.68724    33356          420 
  934000     285.4019   -73.247625    350.21083    33346          410 
  935000    288.20357   -83.772252    399.69469    33400          464 
  936000    289.07647   -87.163704    400.10973    33401          465 
  937000    299.90866   -88.731005    403.92195    33388          452 
  938000    286.59922    -85.87458    392.29459    33394          458 
  939000    291.72643   -89.467877    379.04791    33371          435 
  940000    288.10319   -87.991648    365.84237    33362          426 
  941000    286.48378   -75.112099    368.26751    33368          432 
  942000    275.28074   -82.097286    381.02958    33400          464 
  943000    315.58808   -77.967413    443.10645    33407          471 
  944000    291.67504   -79.253055    379.51057    33373          437 
  945000    298.85014   -86.758711    372.85066    33355          419 
  946000    294.23562   -89.627521    393.94274    33386          450 
  947000    296.74217   -87.087008     399.1194    33388          452 
  948000    305.14517   -81.681533    369.44498    33343          407 
  949000    305.24267   -82.234582    408.97062    33385          449 
  950000    293.20419   -86.188687    401.29749    33396          460 
  951000     290.3516   -94.018291     407.9266    33408          472 
  952000    279.97939   -82.175916    396.73038    33412          476 
  953000    293.28743   -85.754881    423.35511    33420          484 
  954000    303.76581     -90.3735    389.52946    33367          431 
  955000    279.47035   -76.517277    363.21301    33373          437 
  956000    283.67103   -81.476517    373.41116    33377          441 
  957000     296.4357   -87.866115    387.75373    33375          439 
  958000    295.79866   -101.03386    405.73358    33397          461 
  959000    289.86033   -89.402098    378.02175    33374          438 
  960000     288.4854   -83.689794    408.67614    33411          475 
  961000    290.60458   -84.803454    397.45518    33395          459 
  962000    294.01554   -89.978045    404.31983    33398          462 
  963000    282.58928   -82.217264    371.55645    33378          442 
  964000    290.96398    -79.23366    369.69815    33363          427 
  965000    309.88686   -79.567486    407.54341    33378          442 
  966000    298.90947   -81.596614     370.0324    33352          416 
  967000    280.87175   -80.446207    353.19894    33356          420 
  968000    294.46215   -81.069324    389.19175    33380          444 
  969000    305.05039    -83.79972    401.59738    33378          442 
  970000     301.6039   -73.652217    393.90821    33374          438 
  971000    308.79405   -77.276548    399.17118    33370          434 
  972000     296.9743   -61.529037    371.90211    33357          421 
  973000    269.05446   -61.906396    334.90755    33353          417 
  974000    296.09277   -65.828359    350.71179    33334          398 
  975000    288.99115   -61.631893    355.52283    33349          413 
  976000    282.99811     -73.3091    348.80059    33349          413 
  977000    281.15374   -68.920469    359.75238    33366          430 
  978000    270.74576   -73.460948    352.73399    33374          438 
  979000    292.67318   -66.465771    371.24038    33362          426 
  980000    285.19388   -70.628136    362.60524    33362          426 
  981000    307.06673   -72.680823    388.54104    33361          425 
  982000    318.38668   -66.138224    386.49475    33343          407 
  983000    300.68316   -71.507988    388.09892    33369          433 
  984000    310.17899   -67.898717    424.98811    33396          460 
  985000    311.56754   -78.699733    393.28259    33359          423 
  986000     284.0316   -68.626759    400.74204    33410          474 
  987000    282.06835   -71.333164    389.08675    33399          463 
  988000     270.1118   -74.577373    375.43314    33403          467 
  989000    301.63056   -70.112237    395.78574    33377          441 
  990000    300.67352   -72.825551    376.23028    33356          420 
  991000    294.23784   -66.895669    356.92324    33343          407 
  992000    298.39018   -59.590453    383.27035    33367          431 
  993000     289.9865    -64.50341    377.61102    33373          437 
  994000    291.46389   -67.715874    365.38946    33357          421 
  995000    286.23755    -65.36067    359.38553    33358          422 
  996000    291.17123   -66.669279    373.04591    33366          430 
  997000    275.05818   -74.804024    346.74392    33359          423 
  998000    304.90926   -76.116684    394.66172    33371          435 
  999000    282.55449   -83.677259    359.39467    33363          427 
 1000000    294.11741   -73.901218    380.75968    33370          434 
Loop time of 7802.11 on 5 procs for 1000000 steps with 33370 atoms

Performance: 11.074 ns/day, 2.167 hours/ns, 128.170 timesteps/s
99.5% CPU use with 5 MPI tasks x no OpenMP threads

MPI task timing breakdown:
Section |  min time  |  avg time  |  max time  |%varavg| %total
---------------------------------------------------------------
Pair    | 218.2      | 288.82     | 337.54     | 235.4 |  3.70
Neigh   | 3405.3     | 4223.3     | 4748.3     | 753.2 | 54.13
Comm    | 628.39     | 1114       | 2003.8     |1490.4 | 14.28
Output  | 0.15361    | 0.16546    | 0.20892    |   5.3 |  0.00
Modify  | 2012.9     | 2066.5     | 2173.1     | 125.8 | 26.49
Other   |            | 109.3      |            |       |  1.40

Nlocal:    6674 ave 6762 max 6567 min
Histogram: 2 0 0 0 0 0 0 1 1 1
Nghost:    16988.6 ave 17213 max 16611 min
Histogram: 1 0 0 0 0 1 1 0 1 1
Neighs:    13568.2 ave 16304 max 10892 min
Histogram: 1 0 1 0 0 1 0 1 0 1

Total # of neighbors = 67841
Ave neighs/atom = 2.03299
Neighbor list builds = 47338
Dangerous builds = 0

compute		pe ggcmc pe/atom
variable	      x atom c_pe

compute         layers ggcmc chunk/atom bin/1d z lower 0.1 units box bound z -55 55

fix		4 ggcmc ave/chunk 10 100 1000 layers v_x file profile.density
run               3000000
Per MPI rank memory allocation (min/avg/max) = 6.96 | 6.976 | 6.988 Mbytes
Step c_mtem PotEng KinEng Atoms v_nH2 
 1000000    294.11741   -73.901218    380.75968    33370          434 
 1001000    277.58061   -76.023215    355.12589    33366          430 
 1002000    302.67972   -82.250194    400.08684    33380          444 
 1003000    271.77286   -60.497279    333.80207    33349          413 
 1004000    280.26406   -74.058378    362.00987    33370          434 
 1005000    295.41702   -75.674656    426.97975    33420          484 
 1006000    293.98067   -85.584012    385.99049    33377          441 
 1007000    285.03319   -84.852502    367.69437    33367          431 
 1008000     285.8336   -82.112744    381.95618    33384          448 
 1009000    301.44267    -81.16052    386.67989    33367          431 
 1010000    297.62403   -92.505012    425.36904    33416          480 
 1011000     303.1099   -84.484297    425.65922    33408          472 
 1012000    303.97441   -89.194964    439.52668    33422          486 
 1013000    287.15235   -88.824552     376.8107    33377          441 
 1014000    282.51616   -90.172244    345.59793    33346          410 
 1015000    304.74546   -88.130535    402.22421    33379          443 
 1016000    294.56468   -85.062906    396.10439    33388          452 
 1017000    275.74629    -77.80041    374.26293    33392          456 
 1018000     283.6732   -79.562162    381.97902    33386          450 
 1019000    294.67028   -72.698779    400.24779    33390          454 
 1020000    286.36573   -69.941575    368.76418    33368          432 
 1021000    278.85283   -64.918472     353.0348    33361          425 
 1022000    299.07509   -76.931707    381.96441    33365          429 
 1023000     291.2703   -80.319858    410.35873    33409          473 
 1024000    291.73092   -86.714509    386.02088    33380          444 
 1025000    283.07342   -72.694816    336.93637    33336          400 
 1026000    291.51316   -75.050855    373.32848    33366          430 
 1027000    309.12789   -74.420731    418.38284    33387          451 
 1028000    282.38259   -71.752699    348.90281    33351          415 
 1029000    313.60794    -70.21699    388.15234    33350          414 
 1030000    302.95177   -71.435616    395.54415    33371          435 
 1031000    295.21004    -68.03744    368.21287    33355          419 
 1032000    277.78598   -70.793976    350.76294    33357          421 
 1033000    305.35437    -69.46954      377.638    33351          415 
 1034000    297.10546   -73.932476    379.98613    33366          430 
 1035000    285.28952   -75.545174    388.91063    33394          458 
 1036000    283.31866    -65.79883    371.00211    33376          440 
 1037000    303.46665    -68.85618     383.2405    33360          424 
 1038000    302.37375   -66.202929    379.00044    33356          420 
 1039000    279.10625   -63.903394    363.93779    33373          437 
 1040000    291.96068   -69.122053    358.86533    33348          412 
 1041000    297.45843   -71.473434    376.56517    33359          423 
 1042000    297.16938   -75.529444    373.08725    33358          422 
 1043000    297.22134   -69.795565    397.63581    33385          449 
 1044000    304.23994   -74.184949    393.35237    33368          432 
 1045000    277.82959   -83.800775    389.27395    33406          470 
 1046000    299.88076   -83.769649    397.16849    33381          445 
 1047000    302.50895   -74.992829     410.7877    33391          455 
 1048000    313.98729   -76.906863    448.49871    33416          480 
 1049000    289.68811   -79.880205    370.91798    33366          430 
 1050000     285.6525    -74.60879    355.57389    33354          418 
 1051000    265.45895   -82.921085    319.46934    33340          404 
 1052000    297.55815   -82.314538    401.39383    33388          452 
 1053000    288.90061   -78.638781    397.80547    33398          462 
 1054000    298.15991    -80.01198    400.30644    33387          451 
 1055000    304.86393   -87.584155    406.98101    33383          447 
 1056000     306.6303   -74.032044    396.20081    33369          433 
 1057000    286.38261   -74.052393    361.61538    33360          424 
 1058000    300.63484   -69.727249    369.34583    33348          412 
 1059000    282.87425   -67.357611    363.69559    33367          431 
 1060000    275.92914   -75.939705    369.99598    33386          450 
 1061000    297.02064   -71.702671     392.6761    33380          444 
 1062000    290.13193   -78.601805    365.35025    33358          422 
 1063000     297.9403   -76.234375     383.0227    33368          432 
 1064000      284.012   -70.235496    376.39037    33381          445 
 1065000    310.54082   -76.537119    387.46258    33355          419 
 1066000    290.50933   -70.156436    347.98426    33338          402 
 1067000    318.76996   -81.816541    398.39147    33355          419 
 1068000    300.44754   -75.872655    411.27261    33396          460 
 1069000    304.87449   -76.670633    405.65356    33383          447 
 1070000    294.58532   -78.244128     423.4673    33419          483 
 1071000    305.45538   -72.172793    384.98814    33357          421 
 1072000    302.41855   -73.329386    394.79425    33374          438 
 1073000    305.36336   -72.134867    399.94879    33375          439 
 1074000    291.24217   -63.810499    374.24707    33368          432 
 1075000    305.54325   -65.310229    398.09068    33373          437 
 1076000    290.98052   -61.953375    369.45431    33360          424 
 1077000    288.74761    -78.50429    369.25265    33366          430 
 1078000    301.57186   -67.589427    379.71295    33359          423 
 1079000    275.85002   -68.425992    352.28274    33365          429 
 1080000    311.17199   -69.090226     414.3593    33383          447 
 1081000    273.95921   -68.547979    343.21136    33357          421 
 1082000    285.07834   -67.372476    355.57824    33352          416 
 1083000    290.98224   -69.432552    350.61474    33341          405 
 1084000    290.76327   -69.668848    380.58106    33375          439 
 1085000     297.5351   -76.912603    375.64987    33359          423 
 1086000    298.09813    -78.64675    384.59895    33369          433 
 1087000    272.01366   -74.875833    355.43773    33375          439 
 1088000    301.57746   -83.012867     395.4373    33374          438 
 1089000    276.23144   -78.007853    364.58136    33378          442 
 1090000    312.97126   -74.140518    420.13204    33387          451 
 1091000    272.35294   -80.525804    384.44314    33410          474 
 1092000    285.07206   -77.083565    373.78866    33376          440 
 1093000    288.26213    -83.76697    363.64161    33359          423 
 1094000    305.16888   -67.710807    374.17067    33347          411 
 1095000    298.71029    -73.68054    392.89649    33378          442 
 1096000    310.31963   -78.046812    431.49587    33403          467 
 1097000    280.12783   -80.929577    368.57328    33378          442 
 1098000    299.44476    -68.05759    402.24868    33387          451 
 1099000    306.04665   -76.525746    383.48824    33356          420 
 1100000    296.24327   -84.778042     358.7945    33343          407 
 1101000    296.81163   -71.941333    387.55337    33375          439 
 1102000    289.28348   -81.982051      373.076    33368          432 
 1103000    310.48661   -80.959937    424.45395    33395          459 
 1104000    271.52382   -85.877945     344.8949    33363          427 
 1105000    277.34555   -83.055284    375.60422    33390          454 
 1106000    289.51297   -76.314768    392.58817    33391          455 
 1107000    264.68988   -88.069026    346.72447    33374          438 
 1108000    310.33302   -78.579902    422.42957    33393          457 
 1109000    283.20552   -78.802963    359.71904    33363          427 
 1110000    292.47497    -80.89441    399.91172    33395          459 
 1111000    310.41128   -78.213688    403.05417    33372          436 
 1112000    276.27107   -72.427328    350.08264    33362          426 
 1113000    291.31586   -77.227989    367.39581    33360          424 
 1114000    261.47337   -81.869384     347.9837    33380          444 
 1115000    294.28002   -79.626877    372.82092    33361          425 
 1116000    301.95602   -84.677283    388.71238    33366          430 
 1117000    327.15277   -81.110146    414.36033    33359          423 
 1118000     296.0038   -71.827312    382.23136    33368          432 
 1119000    296.83751   -83.096446    406.42765    33396          460 
 1120000    292.35369   -83.267327    398.41243    33393          457 
 1121000    292.01313   -81.437857    377.16674    33370          434 
 1122000    280.23996   -80.011682     367.1985    33376          440 
 1123000    276.19525   -77.085106    337.90969    33346          410 
 1124000    293.30506   -77.699248    373.23124    33360          424 
 1125000    286.83682   -79.732334    362.95577    33359          423 
 1126000    282.75906   -82.774676    383.54076    33391          455 
 1127000    302.68456   -86.061309    399.04294    33378          442 
 1128000    300.73492   -87.406555    399.23151    33381          445 
 1129000    293.44622     -91.4872    395.96869    33389          453 
 1130000    291.86841   -72.855775    389.77119    33384          448 
 1131000     308.2147   -80.597129    426.35431    33401          465 
 1132000    270.57656   -82.555116    357.72872    33380          444 
 1133000    284.25126   -81.132009    382.80968    33388          452 
 1134000    314.00025   -79.513246    416.90451    33381          445 
 1135000    278.43333   -79.829867    359.91113    33369          433 
 1136000    293.36619   -76.892704    377.55038    33368          432 
 1137000    304.43737   -84.993709    422.85042    33400          464 
 1138000    295.39526   -80.891855    382.69721    33371          435 
 1139000    293.44654   -85.067549    406.35055    33400          464 
 1140000    304.48657   -79.389475    428.06924    33408          472 
 1141000    292.65467   -74.748575    382.09333    33374          438 
 1142000    312.23374   -75.162648    388.41201    33349          413 
 1143000    318.32141   -79.170491    385.14047    33342          406 
 1144000    283.39802   -62.921047    329.70022    33327          391 
 1145000    286.20795   -73.537509    330.58331    33324          388 
 1146000    292.86459    -67.87576    334.47125    33319          383 
 1147000    296.62548    -68.10336    357.58929    33340          404 
 1148000    293.22194   -73.961479     374.5242    33364          428 
 1149000    279.73557   -72.264078     375.4945    33386          450 
 1150000    280.92044   -78.258875    367.89293    33376          440 
 1151000    298.27986   -69.820193    398.91976    33384          448 
 1152000    308.90543   -76.814466    387.53382    33356          420 
 1153000    294.50955   -62.012419    335.87146    33319          383 
 1154000    314.22915    -69.23946       386.66    33348          412 
 1155000    295.68804   -68.629618    381.01502    33368          432 
 1156000    267.30277   -74.369544    347.15186    33372          436 
 1157000    275.77515    -70.03312    368.44343    33385          449 
 1158000    272.69928   -77.881963    352.68619    33370          434 
 1159000    309.25218   -85.453727    430.44032    33403          467 
 1160000    303.25179   -84.211887     411.9197    33390          454 
 1161000    300.45301   -87.486827    404.91514    33387          451 
 1162000    300.36806   -83.139901    393.20581    33375          439 
 1163000    268.17689   -91.946236    359.45885    33386          450 
 1164000    291.39899   -98.227564    391.25707    33387          451 
 1165000    282.85436   -87.015504    364.27719    33367          431 
 1166000    290.81697   -88.943752     400.9558    33398          462 
 1167000    295.74609   -92.165387    410.44257    33402          466 
 1168000    281.30334   -95.814066     375.2116    33382          446 
 1169000    291.90237   -94.045004    382.70044    33376          440 
 1170000    299.95802   -90.891817    409.37381    33394          458 
 1171000    304.65748   -89.030285    410.89875    33388          452 
 1172000    298.99322   -86.008164    419.95329    33407          471 
 1173000    292.14302   -72.783352    382.88745    33376          440 
 1174000    282.36086   -72.808644    377.47847    33384          448 
 1175000    310.57327   -76.064594    389.69195    33357          421 
 1176000    277.19604   -74.944681     345.8876    33355          419 
 1177000      295.105   -68.389273    360.77186    33347          411 
 1178000    274.11467   -73.496971     325.4171    33334          398 
 1179000    293.61694   -70.155346    355.47707    33343          407 
 1180000    290.99611   -77.820171    364.93247    33357          421 
 1181000    289.21071   -72.017434    343.60686    33333          397 
 1182000     305.4052   -82.667422    385.15317    33359          423 
 1183000    289.35588   -73.387213    380.31508    33376          440 
 1184000    297.93728    -74.81447    397.85025    33384          448 
 1185000    319.97716   -80.932588    400.96288    33357          421 
 1186000    303.54358   -82.012996    401.27713    33380          444 
 1187000    298.79691   -82.198522    406.89263    33391          455 
 1188000    294.88904   -93.970707    408.29766    33401          465 
 1189000    294.44104   -96.362627    414.57998    33408          472 
 1190000    289.78958   -101.27899    407.87592    33407          471 
 1191000    297.20288    -95.72708    388.27081    33374          438 
 1192000    293.00322   -97.686427    410.57489    33407          471 
 1193000    303.05615   -80.545022     411.1472    33392          456 
 1194000     291.4321   -90.973819    400.71649    33396          460 
 1195000    279.26924   -76.324689    358.93895    33368          432 
 1196000    288.15372   -80.449983    373.88918    33372          436 
 1197000    263.84012   -75.390475    339.82275    33368          432 
 1198000    312.38669   -77.221842    393.76032    33359          423 
 1199000    296.86083   -71.745724    401.44979    33390          454 
 1200000    288.66979   -77.642199    377.51686    33375          439 
 1201000     288.1876   -78.527098    372.35223    33369          433 
 1202000    306.89891    -72.65895    368.89717    33340          404 
 1203000    297.02342   -61.306157    362.80797    33346          410 
 1204000    289.11303   -65.986747    374.83617    33371          435 
 1205000    285.84025   -61.613725    353.47654    33351          415 
 1206000    286.11014   -66.379968    370.20682    33371          435 
 1207000    302.41767   -77.858034    415.28028    33396          460 
 1208000    276.59054   -74.550296    374.45278    33390          454 
 1209000    290.88419   -77.429932     415.5101    33416          480 
 1210000    304.23135   -74.147933    409.69678    33387          451 
 1211000    276.31715   -65.508872    333.01429    33341          405 
 1212000    285.64292   -63.806073    360.20035    33360          424 
 1213000     276.1424   -65.662924    343.46556    33353          417 
 1214000    315.35115   -76.252128    409.76526    33372          436 
 1215000    302.40009   -76.665559    382.80795    33360          424 
 1216000    283.97823   -82.680186     351.9345    33352          416 
 1217000    281.26149   -76.823768    343.05481    33345          409 
 1218000    301.85948   -70.055306    359.95864    33337          401 
 1219000    292.48778   -67.735314    359.35303    33349          413 
 1220000    288.15123    -76.15776    337.48682    33329          393 
 1221000    307.31673     -76.8603    354.65396    33324          388 
 1222000     283.3994   -68.508243    361.74336    33365          429 
 1223000    298.88833   -72.927233     382.7087    33366          430 
 1224000    315.55358   -70.731011    389.21359    33350          414 
 1225000     295.4188   -65.492652    341.62204    33324          388 
 1226000    311.85239   -81.887546    371.13419    33334          398 
 1227000    290.21733   -79.278698    344.66242    33334          398 
 1228000    295.17795   -86.705622     380.6251    33369          433 
 1229000    284.17874   -91.578377    373.58457    33377          441 
 1230000    284.05509   -85.343438    361.88584    33364          428 
 1231000    266.00084   -78.605717    365.64159    33397          461 
 1232000    295.68028   -85.262607    399.21054    33389          453 
 1233000    302.82552   -79.825086    421.91244    33404          468 
 1234000    289.54213   -83.214347    380.06598    33377          441 
 1235000    276.83035   -90.247211    384.73122    33401          465 
 1236000    300.91453   -95.668922    422.50341    33407          471 
 1237000    292.03782   -98.563787     411.7045    33409          473 
 1238000    298.49208   -99.438726    402.40993    33389          453 
 1239000     295.1348   -87.897576    412.42032    33405          469 
 1240000    285.95432   -85.033048    370.09371    33370          434 
 1241000    295.47704    -88.69019    372.51036    33358          422 
 1242000    296.43264   -87.524144     369.0433    33354          418 
 1243000    286.86587   -86.070898     399.6747    33404          468 
 1244000    281.00032   -82.207158     388.0533    33399          463 
 1245000    298.91148   -82.951604    409.39611    33395          459 
 1246000    279.78172   -82.734459    370.58225    33379          443 
 1247000     280.0146   -84.049674    375.62107    33387          451 
 1248000    312.60595   -97.465727    449.78145    33418          482 
 1249000      290.993   -98.713847    415.75834    33416          480 
 1250000    287.44438   -82.953506    360.62099    33357          421 
 1251000    296.87657   -79.300137    407.74137    33397          461 
 1252000    309.44417   -91.713176     411.9921    33383          447 
 1253000     301.6101    -77.37973    393.19744    33371          435 
 1254000    303.66931   -77.090623     377.7781    33354          418 
 1255000    283.67114   -86.186305     389.5763    33397          461 
 1256000    297.44997   -83.131384    404.61354    33392          456 
 1257000    289.08592   -87.290668    388.60585    33386          450 
 1258000    301.60135   -85.666868    403.89687    33386          450 
 1259000    312.35727   -84.683381    414.12284    33380          444 
 1260000    273.18874   -85.670053      370.405    33391          455 
 1261000    310.51843   -94.594094    428.99769    33400          464 
 1262000    270.43224   -86.143304    341.89322    33361          425 
 1263000    292.31783   -92.866969    397.68671    33393          457 
 1264000     281.8141   -97.476429    389.54414    33399          463 
 1265000    276.58217   -98.614546    370.55941    33386          450 
 1266000    317.94205    -85.59525    405.03993    33364          428 
 1267000    286.75341   -81.912755    344.11033    33339          403 
 1268000    292.91434   -80.907786    383.28182    33374          438 
 1269000     290.6297   -80.662156    378.47633    33373          437 
 1270000    308.26919   -78.176701    411.24756    33384          448 
 1271000    298.21483   -82.108838    377.81337    33361          425 
 1272000    293.27529   -85.193845    395.44613    33388          452 
 1273000    296.52388   -89.971818     400.1547    33389          453 
 1274000    287.75906   -86.516805    368.72106    33366          430 
 1275000    317.48465   -94.699121    411.82554    33371          435 
 1276000     300.5073   -79.429363    378.13737    33359          423 
 1277000    291.63189   -81.191315    385.11197    33379          443 
 1278000    280.68864   -77.066998    346.37192    33350          414 
 1279000    302.37899   -77.171034    380.40021    33358          422 
 1280000      298.432   -74.152053    405.66162    33392          456 
 1281000    318.44322   -82.773737    421.46709    33381          445 
 1282000     297.1104   -87.122812    393.76246    33381          445 
 1283000    291.47404   -95.030028    418.58056    33418          482 
 1284000    297.52265   -94.577488    393.73056    33380          444 
 1285000    296.95138   -83.083568    394.83215    33383          447 
 1286000    299.80131    -80.50731    391.09658    33374          438 
 1287000    300.82631   -77.337356    390.47368    33370          434 
 1288000     285.5471   -79.315965    358.92445    33358          422 
 1289000    269.52763   -71.077841     326.1091    33341          405 
 1290000    285.65327   -82.629203    346.45036    33343          407 
 1291000    295.04783   -79.427357    378.32646    33367          431 
 1292000    306.74585   -84.922323    417.28865    33393          457 
 1293000    292.13282   -85.532584    397.26982    33391          455 
 1294000    292.93986   -86.313578    401.62158    33396          460 
 1295000    297.06385   -89.532484    401.29061    33390          454 
 1296000    304.20487   -81.977246    408.03117    33383          447 
 1297000    276.25478   -83.965668    370.56249    33385          449 
 1298000    296.34543   -84.285216     395.5788    33383          447 
 1299000    301.13234   -81.609728    371.36704    33350          414 
 1300000     293.3457   -80.699382    364.54198    33351          415 
 1301000    274.68957   -81.755915    359.64184    33373          437 
 1302000     298.1474    -80.69023    415.87249    33404          468 
 1303000    298.57367   -89.430734    369.42554    33351          415 
 1304000    291.29204    -84.81932    380.76979    33374          438 
 1305000    306.63265    -85.73775    375.22288    33347          411 
 1306000    291.08929   -76.587716    367.01947    33359          423 
 1307000    292.01681   -83.427155    387.79666    33382          446 
 1308000    305.27386   -85.527876    401.89403    33378          442 
 1309000    275.07233   -91.851919    371.70697    33389          453 
 1310000    284.50495   -85.378154    391.09452    33398          462 
 1311000    312.08262   -94.584268    413.27818    33380          444 
 1312000    285.43152   -79.367413    387.42546    33392          456 
 1313000    276.39066    -88.36582    374.83534    33391          455 
 1314000    299.02774   -83.210968    377.30816    33358          422 
 1315000    284.60413   -71.589421    344.73841    33343          407 
 1316000    303.07006   -72.026252    397.63282    33376          440 
 1317000    290.48692   -83.399192    409.65617    33408          472 
 1318000    296.08294   -81.413087    410.89716    33401          465 
 1319000    295.49197   -75.865206    384.11225    33373          437 
 1320000    300.39431   -76.177398    402.76577    33386          450 
 1321000     275.9097   -73.681871    352.19181    33364          428 
 1322000    295.45741   -74.869554    394.12491    33384          448 
 1323000    282.15309   -69.167703    353.32698    33357          421 
 1324000    263.56045   -63.629239    337.99067    33365          429 
 1325000    290.40371    -77.10477    358.09717    33350          414 
 1326000    291.33292   -60.144113    386.03259    33381          445 
 1327000    307.06856   -66.813078    391.95132    33364          428 
 1328000    286.44813   -65.971701    367.21393    33367          431 
 1329000     292.1715   -64.916622    351.33712    33340          404 
 1330000    307.43014   -62.226723    396.74936    33367          431 
 1331000    295.03238   -71.107833    376.91702    33364          428 
 1332000    282.32792   -67.282717    355.59073    33359          423 
 1333000    276.70283   -68.324966    369.18121    33384          448 
 1334000    299.68858   -65.850339     389.6868    33373          437 
 1335000    282.48061   -68.683375    369.17466    33375          439 
 1336000    309.33552   -61.701282    349.00141    33315          379 
 1337000     291.4027   -64.201595    339.76252    33327          391 
 1338000    291.31331   -66.270663    348.20545    33336          400 
 1339000    293.59254   -69.548116    381.00549    33372          436 
 1340000    285.48261   -58.865149    344.23179    33341          405 
 1341000    300.34164   -56.735458    336.87126    33313          377 
 1342000    299.54162   -56.824697    386.30337    33369          433 
 1343000    288.49695   -70.672686    392.35937    33393          457 
 1344000    287.67808   -72.914584    395.47054    33397          461 
 1345000    281.59284   -63.200089    345.86951    33348          412 
 1346000    299.63343   -57.963811    354.29343    33333          397 
 1347000    302.37722   -60.620165    391.64477    33371          435 
 1348000    282.69898   -67.975032    384.96732    33392          456 
 1349000    287.22606    -70.56229    379.18095    33378          442 
 1350000    304.69783   -63.738383    373.98713    33347          411 
 1351000    295.29857   -67.741695    364.49359    33351          415 
 1352000    294.85004   -66.945821    378.29791    33367          431 
 1353000    307.26966   -72.675358    389.41568    33362          426 
 1354000    292.73393   -64.764388    406.21756    33402          466 
 1355000    278.02583    -71.13919    361.46657    33373          437 
 1356000    303.28005   -72.184232    400.97456    33380          444 
 1357000    267.68616   -74.070204    368.08015    33397          461 
 1358000    296.02752   -64.015281    414.06374    33405          469 
 1359000    294.26234   -64.787144    374.02547    33363          427 
 1360000    305.87276   -70.065845    420.62699    33398          462 
 1361000    322.18872   -74.760534    420.84278    33374          438 
 1362000    298.02693   -75.221242    378.67351    33363          427 
 1363000    278.40053   -76.488757    359.47113    33369          433 
 1364000     277.8006   -67.647793    355.50175    33365          429 
 1365000    295.69063   -70.101467    356.22034    33341          405 
 1366000    283.08352   -65.569475    346.86425    33348          412 
 1367000    330.08641   -75.697852    411.11561    33354          418 
 1368000    288.32921   -78.276032    390.58901    33391          455 
 1369000    309.86685   -69.288187    382.18025    33350          414 
 1370000    297.41743    -55.90621    377.89278    33362          426 
 1371000    279.83532   -64.025411    337.81191    33340          404 
 1372000    317.99572   -71.926501    409.85733    33369          433 
 1373000    299.67308   -72.389868    388.76212    33371          435 
 1374000    281.61931    -68.50943    404.75047    33419          483 
 1375000    300.49219   -72.872937    386.34372    33367          431 
 1376000    292.75535   -58.460554    361.98592    33351          415 
 1377000    294.37365    -69.17311    366.45588    33353          417 
 1378000    287.81453   -65.117159    364.98567    33362          426 
 1379000    307.54053     -70.3543    387.04503    33358          422 
 1380000    280.84533   -67.611105    368.31972    33376          440 
 1381000    287.32598   -66.574332    371.12143    33370          434 
 1382000    290.77915   -66.078604    371.62622    33365          429 
 1383000    299.07969   -72.033468    414.33188    33401          465 
 1384000    278.82598   -77.343888    408.83807    33428          492 
 1385000    307.95331   -70.981436    417.36708    33390          454 
 1386000    298.54018   -68.218989    366.85373    33349          413 
 1387000    289.91828   -70.177613    378.97086    33372          436 
 1388000    300.95037   -83.857367    413.73774    33397          461 
 1389000    295.28738   -67.140605    390.02213    33380          444 
 1390000    295.30058   -69.925769    369.07256    33356          420 
 1391000    308.46867   -73.506007     406.8631    33379          443 
 1392000    292.05547   -64.714731    365.04557    33356          420 
 1393000    309.06036   -65.830635    383.67997    33353          417 
 1394000    283.73591   -71.543799    361.69615    33361          425 
 1395000    297.09488      -67.707    389.63678    33376          440 
 1396000    285.80294   -76.390415     362.2567    33362          426 
 1397000    268.21925   -69.146534    345.58598    33368          432 
 1398000    273.82688   -68.857221    385.88545    33408          472 
 1399000    294.36058   -78.721988    406.08152    33399          463 
 1400000    289.72979   -66.292338    376.73091    33373          437 
 1401000    289.90116   -69.955735    368.54963    33363          427 
 1402000    274.45227   -74.312004    369.42704    33387          451 
 1403000    301.99502    -59.31458    391.49086    33370          434 
 1404000    307.97034   -70.270789    421.52608    33395          459 
 1405000    284.11078   -74.859475    381.47307    33386          450 
 1406000    299.10879   -75.423626    363.12733    33344          408 
 1407000    286.51624   -71.947636    381.51242    33382          446 
 1408000    296.54469   -80.764603     421.1406    33412          476 
 1409000    291.60198   -67.733457    379.74835    33373          437 
 1410000    291.47251   -69.874621    376.54181    33369          433 
 1411000    290.90069   -66.005356     395.7318    33393          457 
 1412000    295.20571   -73.691345     411.5191    33403          467 
 1413000    280.29967   -74.062628    353.81021    33360          424 
 1414000    315.18739   -68.967765    400.49376    33363          427 
 1415000    290.81064     -71.7071    359.18696    33351          415 
 1416000    305.68893   -73.824644    406.80318    33381          445 
 1417000    298.78235   -74.942464    423.19092    33411          475 
 1418000    295.56844   -62.256991    380.06843    33367          431 
 1419000    271.19599   -68.761891     358.7571    33378          442 
 1420000    308.31154   -61.262883    405.49798    33378          442 
 1421000    292.89682   -66.293954     382.8221    33375          439 
 1422000    291.15293   -63.501752    405.32015    33403          467 
 1423000    278.51709    -71.73835     374.0851    33387          451 
 1424000    299.57175    -68.97377    389.19017    33372          436 
 1425000    305.19376   -69.035771     403.1817    33380          444 
 1426000    262.53732    -71.54466     345.1977    33377          441 
 1427000    288.64691    -66.87184    368.67355    33364          428 
 1428000    294.53593   -64.691239    361.06416    33348          412 
 1429000    277.47746   -62.977978    323.52788    33326          390 
 1430000    296.76642   -74.770829    399.60819    33387          451 
 1431000    285.11983   -65.805115    362.56777    33362          426 
 1432000    276.86923   -72.079968    378.19834    33395          459 
 1433000    297.74555    -76.21101    371.17681    33355          419 
 1434000    283.95464   -76.745587    395.36925    33403          467 
 1435000     277.0932   -72.332079    364.80605    33378          442 
 1436000    298.83594   -83.941445    403.09327    33389          453 
 1437000    293.86227   -78.238284    384.63164    33375          439 
 1438000    268.75492   -85.493564    366.50802    33393          457 
 1439000    284.15184   -77.358798    375.98818    33380          444 
 1440000    285.07919   -71.668398    391.90565    33396          460 
 1441000    283.87435   -73.623587    361.41387    33364          428 
 1442000    293.31304   -73.688254    366.89206    33355          419 
 1443000    297.17608   -74.807944    385.56276    33371          435 
 1444000    271.71279   -81.467712    344.03178    33361          425 
 1445000    298.15992   -80.383594    373.37501    33357          421 
 1446000    304.09863   -80.031762    398.13931    33374          438 
 1447000    279.77622   -71.985529    367.20585    33377          441 
 1448000    287.70115   -78.612059    371.78245    33369          433 
 1449000    303.03825   -75.863063    365.37282    33341          405 
 1450000    301.44918   -76.799157       420.21    33402          466 
 1451000    294.55326   -76.758277    398.56336    33388          452 
 1452000    289.82135   -76.740157    366.90047    33361          425 
 1453000    294.22486   -73.876447    359.69603    33344          408 
 1454000    293.97842   -68.285684    394.31461    33385          449 
 1455000    289.05444   -84.065095    371.48762    33368          432 
 1456000    287.48465   -79.072511    384.29188    33385          449 
 1457000    288.96684   -68.437114     375.9814    33373          437 
 1458000    293.74747   -84.062551    392.61878    33385          449 
 1459000    307.73935   -75.113577    411.24442    33385          449 
 1460000     292.4509    -76.35715    367.39349    33358          422 
 1461000    280.63955   -77.206664    342.17537    33345          409 
 1462000    297.24319   -79.522099    367.72883    33352          416 
 1463000    277.21435   -80.144888    334.34853    33339          403 
 1464000    291.97264   -74.916347    379.13036    33370          434 
 1465000    289.04984   -82.223987     397.6295    33396          460 
 1466000    294.19778   -91.122151    393.83055    33385          449 
 1467000    299.29193   -84.407691    391.85987    33375          439 
 1468000    293.37324   -85.153492    416.17609    33412          476 
 1469000     299.2354   -90.840497    439.55039    33429          493 
 1470000    291.30068    -82.36854    407.42665    33405          469 
 1471000    300.84631    -85.03604    400.87194    33383          447 
 1472000    296.77587   -88.882194    434.68676    33428          492 
 1473000    303.31149   -96.014794    427.12726    33408          472 
 1474000    277.98566   -83.960344    379.91548    33394          458 
 1475000    289.04989   -82.585023    398.97221    33398          462 
 1476000    287.08276   -78.526923    378.42284    33378          442 
 1477000    288.62648   -85.215639    378.21361    33376          440 
 1478000    281.89511   -86.481399    385.27068    33395          459 
 1479000    283.65479   -92.248638    380.90268    33386          450 
 1480000    294.84668   -88.959394    379.50666    33368          432 
 1481000    281.42323   -82.944219    386.10272    33397          461 
 1482000    291.43463   -86.635089    388.34873    33384          448 
 1483000    315.72312   -82.935294     428.7267    33390          454 
 1484000    291.65391   -98.950812    382.29475    33376          440 
 1485000    276.06666    -84.65036    368.94842    33384          448 
 1486000    291.96959   -88.565384     396.6252    33392          456 
 1487000    289.08934     -78.4905    388.50048    33387          451 
 1488000    325.03652   -80.479449    424.46224    33375          439 
 1489000    289.84074   -79.060115    377.90985    33374          438 
 1490000    288.28943   -76.230663    399.21117    33401          465 
 1491000    294.82874   -77.457978    402.16783    33394          458 
 1492000    280.83534   -83.093765    395.98545    33408          472 
 1493000    290.22129   -83.632231    390.75699    33388          452 
 1494000    302.18268   -88.064884    392.23481    33371          435 
 1495000    300.80966   -75.405687    382.98337    33364          428 
 1496000    300.93318    -86.53988    411.07195    33394          458 
 1497000    296.70888   -76.164668    371.68621    33356          420 
 1498000    300.30149   -81.054175    377.98253    33359          423 
 1499000    293.40101   -73.340297    371.02086    33360          424 
 1500000    281.47703   -76.765544    384.65009    33395          459 
 1501000    293.80802   -74.555054    376.62194    33367          431 
 1502000    289.11736    -73.02931    350.44361    33342          406 
 1503000    299.81831   -74.875195    391.14102    33373          437 
 1504000    305.86491   -78.841497       412.61    33389          453 
 1505000    271.94679   -82.450812    358.75803    33377          441 
 1506000    303.80665   -70.837369    407.79848    33387          451 
 1507000    267.54731   -72.064213    370.88956    33400          464 
 1508000    306.80018   -86.277232     436.4326    33414          478 
 1509000    292.19516   -84.504841    413.97615    33412          476 
 1510000    271.84043   -85.740822    351.40491    33369          433 
 1511000    302.38921    -79.25751    393.22857    33373          437 
 1512000    294.95077   -74.457027    368.89661    33356          420 
 1513000    291.71579   -74.864948    395.00777    33391          455 
 1514000    278.38547   -75.894619    382.86006    33398          462 
 1515000    303.58258   -74.215936    402.04494    33380          444 
 1516000    313.05873   -81.703963    405.28018    33371          435 
 1517000    283.02338   -80.905276    383.32042    33390          454 
 1518000    282.50963   -80.879683    374.59836    33380          444 
 1519000    306.92727   -79.864767     420.9055    33396          460 
 1520000    309.51073   -80.887047    422.92317    33394          458 
 1521000     292.3771   -73.952293    376.43197    33368          432 
 1522000    308.14181   -76.915548    377.06723    33347          411 
 1523000    274.46503   -89.736628    379.74421    33398          462 
 1524000    308.64234   -93.174014    421.54988    33393          457 
 1525000    290.38553   -83.988663    394.95508    33393          457 
 1526000    299.32939   -88.111319    384.26351    33367          431 
 1527000    274.10254   -91.430718    377.72484    33398          462 
 1528000     296.8048   -85.137999    408.22899    33398          462 
 1529000    312.00485   -90.162445     375.4881    33340          404 
 1530000    302.72561    -88.16517    417.12329    33396          460 
 1531000    320.69208   -87.028162    410.20882    33366          430 
 1532000    312.98345   -79.247412    419.99599    33387          451 
 1533000    289.02805    -72.71232      364.264    33359          423 
 1534000    294.95155   -77.321042    359.97801    33346          410 
 1535000    313.96458   -65.673948    385.97898    33349          413 
 1536000    285.27017   -71.275353     379.3663    33381          445 
 1537000    284.81211   -74.381329    371.08123    33374          438 
 1538000    281.49125   -69.770101    345.36323    33347          411 
 1539000    278.74221   -69.241873    391.89104    33407          471 
 1540000    332.46866   -73.570903    419.36925    33360          424 
 1541000    291.65258   -77.579188    363.07955    33354          418 
 1542000     301.5059   -75.379776    405.80034    33387          451 
 1543000    290.14853   -79.019372    383.65058    33378          442 
 1544000    282.54149   -70.274923     356.3586    33360          424 
 1545000    281.86813   -79.590988    362.13845    33367          431 
 1546000    289.61133   -81.752874    364.49736    33359          423 
 1547000    297.89412    -81.89151    388.21373    33374          438 
 1548000    291.07632   -77.133495    359.22505    33350          414 
 1549000    269.33735   -85.599179    326.82063    33344          408 
 1550000     300.0534   -71.443112    372.35049    33353          417 
 1551000    309.06951   -81.627643    418.31703    33391          455 
 1552000    282.26153   -77.295187    384.66383    33394          458 
 1553000    284.71415   -69.226018    340.90485    33336          400 
 1554000    319.66039   -70.706435    388.14761    33343          407 
 1555000    298.70312   -73.377662    382.11732    33365          429 
 1556000    305.79633   -73.243886    404.51236    33379          443 
 1557000    294.21814   -78.892451    371.81283    33360          424 
 1558000    297.28972   -78.070148    387.21563    33373          437 
 1559000    304.80593   -69.196286    394.27653    33370          434 
 1560000    317.34911   -61.272595    398.56069    33357          421 
 1561000    296.26254   -71.012735     398.0184    33387          451 
 1562000     294.6128   -73.135287    398.72379    33391          455 
 1563000    294.42263   -60.386588    388.87727    33380          444 
 1564000    303.94784    -70.38504    390.15022    33367          431 
 1565000    290.38612   -58.017578    361.74317    33354          418 
 1566000    305.44696   -61.444563    406.91957    33383          447 
 1567000    294.03176   -69.707044    344.25365    33329          393 
 1568000    295.22099   -63.861245     358.3235    33343          407 
 1569000    288.89157    -59.83774    354.17108    33348          412 
 1570000    300.16276   -63.280652     374.3541    33355          419 
 1571000    291.01549   -83.238138    398.59445    33394          458 
 1572000    309.69776   -83.232097     417.3587    33389          453 
 1573000    287.98601   -71.489531    410.40805    33415          479 
 1574000    293.07177   -74.147063    393.09836    33386          450 
 1575000    290.19129   -81.755389    415.89107    33417          481 
 1576000    304.09514   -87.024757    412.12072    33390          454 
 1577000    273.60473   -89.380531    379.33488    33402          466 
 1578000    276.89486   -87.193541    383.44872    33401          465 
 1579000    297.98441   -81.544504    385.94491    33371          435 
 1580000      265.737   -81.700978    317.21524    33337          401 
 1581000    312.39268   -90.414898     406.6865    33373          437 
 1582000    296.55717   -87.025764    394.01867    33382          446 
 1583000    308.03911   -86.433996    414.32198    33388          452 
 1584000    286.34055    -84.93456    385.88951    33389          453 
 1585000    296.70139   -90.130517    408.23737    33397          461 
 1586000    311.19489   -96.747777      442.515    33413          477 
 1587000     288.3673   -92.490516    393.94402    33395          459 
 1588000    305.99214   -88.244867    423.35518    33401          465 
 1589000     289.7701   -83.267347    400.22181    33399          463 
 1590000    270.91632   -91.203707    365.21932    33387          451 
 1591000    289.21482   -87.854602     414.3036    33417          481 
 1592000    302.02176   -74.554618    388.37629    33368          432 
 1593000      287.128   -75.129073    366.60179    33365          429 
 1594000    284.27279   -73.540193     362.0638    33362          426 
 1595000    295.18167   -75.732995    362.06963    33343          407 
 1596000    289.21834    -69.11595    365.07089    33359          423 
 1597000     276.9822   -66.228957    379.29256    33394          458 
 1598000    307.21638   -62.330648    384.12208    33355          419 
 1599000    297.38263   -62.899389    397.87724    33384          448 
 1600000     286.6025   -69.731322    397.43415    33401          465 
 1601000    295.97447   -64.453824    379.71964    33366          430 
 1602000    302.33273   -63.852326     364.5216    33340          404 
 1603000    293.45987   -74.953456    379.07462    33370          434 
 1604000    291.50289   -76.497112     396.1989    33392          456 
 1605000    279.68204   -76.980412     381.6931    33394          458 
 1606000     284.4025   -78.394223    368.36438    33371          435 
 1607000     286.8368   -65.717999    357.42661    33355          419 
 1608000    289.18806   -65.922266    360.71038    33354          418 
 1609000    286.92941   -80.883909    377.45586    33378          442 
 1610000    278.14092   -75.627595    370.65222    33384          448 
 1611000    320.27876   -81.307587    452.60183    33410          474 
 1612000    298.62745     -72.8546    432.73807    33421          485 
 1613000    289.20163   -79.013179    377.92381    33375          439 
 1614000    295.08602   -73.201777    394.80873    33384          448 
 1615000    277.39754   -65.517334     375.7424    33387          451 
 1616000    298.90841   -64.272912    382.81351    33365          429 
 1617000    280.00235   -67.592228    356.02044    33362          426 
 1618000    289.99517   -62.262074    327.83428    33315          379 
 1619000    302.84359   -70.743901    377.69157    33354          418 
 1620000     294.5078   -67.303681    373.58723    33362          426 
 1621000      291.811   -71.538585    355.49637    33345          409 
 1622000    283.42097   -79.919566    360.50344    33361          425 
 1623000    290.81355   -79.303691      375.703    33370          434 
 1624000    289.78065    -85.86393    394.62316    33393          457 
 1625000    263.81381   -87.485218    350.58082    33382          446 
 1626000    291.57428   -75.113445    363.45948    33353          417 
 1627000    319.25557   -80.966047    395.99491    33353          417 
 1628000    291.17903   -75.063424    353.62119    33343          407 
 1629000    285.57748   -80.117012    348.14342    33345          409 
 1630000    294.30431   -78.724302    398.43021    33391          455 
 1631000    294.83925   -69.262259     377.2713    33366          430 
 1632000     293.4495   -76.277004    382.21373    33373          437 
 1633000    297.51045   -75.774411    394.52601    33381          445 
 1634000    298.41212   -69.552531     383.9687    33368          432 
 1635000    278.08832   -79.336538    376.56603    33391          455 
 1636000    300.92523   -77.394923    397.48405    33379          443 
 1637000    312.98138   -78.317797    368.54223    33332          396 
 1638000    284.76455    -70.80791    352.86489    33352          416 
 1639000    296.35528   -72.081468     351.7007    33335          399 
 1640000    302.57205   -74.874312    381.90639    33359          423 
 1641000    307.33811   -73.715562     416.3888    33391          455 
 1642000    280.31151   -83.770379    366.81465    33375          439 
 1643000     285.4443   -90.556875    396.98764    33403          467 
 1644000    288.78662   -76.627579    383.45741    33381          445 
 1645000    287.88616   -83.239702    381.30957    33381          445 
 1646000    293.10559   -82.491239    406.04793    33401          465 
 1647000    312.24679   -88.406914    454.64078    33424          488 
 1648000    317.65487   -84.071556    441.37615    33403          467 
 1649000     282.7499   -74.831125    352.02515    33354          418 
 1650000    285.91701   -75.407579    366.70726    33367          431 
 1651000    297.46886   -76.984071    381.28645    33366          430 
 1652000    277.82238   -79.554704    370.48934    33383          447 
 1653000    301.74248   -76.548273    420.36053    33404          468 
 1654000    301.74853   -81.062227    387.78436    33367          431 
 1655000    277.59294   -75.040536    329.87676    33334          398 
 1656000    272.46024    -73.06852    353.77806    33368          432 
 1657000    316.56742   -68.814978    414.63946    33376          440 
 1658000    298.93108   -76.224107    365.37672    33346          410 
 1659000      283.951   -69.964729    348.01786    33348          412 
 1660000    322.37174   -67.079086    403.48995    33356          420 
 1661000     285.1936   -74.460077    385.26226    33390          454 
 1662000    291.16887   -78.993522    382.40865    33377          441 
 1663000    297.56958   -70.372779    393.26515    33378          442 
 1664000    297.41019   -78.131189    387.92172    33371          435 
 1665000    288.33998   -80.238205    364.37905    33360          424 
 1666000    304.43269   -84.909578    375.92578    33351          415 
 1667000    301.00648   -78.310661    414.32033    33398          462 
 1668000    302.36166   -75.037985    386.67236    33364          428 
 1669000    284.64946    -67.61148    369.29829    33372          436 
 1670000    287.13683   -70.552894    352.04971    33348          412 
 1671000    304.39636   -65.892691    389.50868    33365          429 
 1672000    298.91012   -72.396149    381.07422    33362          426 
 1673000    307.69022   -69.463047    374.67679    33345          409 
 1674000    301.28274   -63.599528    390.09047    33371          435 
 1675000    281.81043   -66.426155    339.75237    33341          405 
 1676000    299.40746   -64.381871    362.46593    33343          407 
 1677000    288.37723   -60.504503    378.42519    33377          441 
 1678000    294.42968   -62.641888    352.66583    33338          402 
 1679000     318.4514    -64.14968    387.14668    33344          408 
 1680000    274.19773   -61.703903    326.39354    33336          400 
 1681000    288.27597   -56.549533      371.745    33369          433 
 1682000    306.09259   -63.584312    415.25883    33392          456 
 1683000    287.85477   -72.238912    363.05497    33359          423 
 1684000    283.22786   -67.376405    355.14286    33357          421 
 1685000    286.51048   -74.901138    419.00642    33425          489 
 1686000    311.00052   -75.551711    412.11427    33381          445 
 1687000    278.12048    -76.10689     377.7247    33392          456 
 1688000    312.11746   -80.786336    427.81321    33396          460 
 1689000    272.25639   -74.197089    362.05939    33383          447 
 1690000    303.01477   -70.640905    373.75443    33350          414 
 1691000    291.62406   -77.161749    378.18767    33371          435 
 1692000    296.66183   -66.791621    357.72862    33341          405 
 1693000    287.52287   -66.431754    351.79588    33346          410 
 1694000    308.35596   -69.831722    400.09894    33372          436 
 1695000    305.84902   -68.246731    389.80247    33363          427 
 1696000    290.40012   -69.174036    392.58171    33389          453 
 1697000    266.46343   -56.626651    319.51306    33339          403 
 1698000    296.93411   -68.339111    372.64692    33356          420 
 1699000     302.3089   -57.319242    410.16837    33392          456 
 1700000    297.03378   -73.362274    412.79302    33401          465 
 1701000    290.63188   -67.591547    372.98122    33365          429 
 1702000    297.30048   -66.362069    373.51297    33358          422 
 1703000    304.29756   -71.151376    398.50595    33375          439 
 1704000    304.68386   -66.766369    398.83148    33375          439 
 1705000    278.14286   -76.671867    328.35594    33333          397 
 1706000    300.77306   -64.422287    363.66872    33341          405 
 1707000    290.78275   -74.816205    379.83284    33375          439 
 1708000    272.94729   -75.173731    338.85926    33353          417 
 1709000    281.69436   -76.188224    379.64756    33389          453 
 1710000    304.58264   -77.171112    405.68015    33381          445 
 1711000    296.12084   -68.708837    393.64992    33382          446 
 1712000    289.10941   -65.517836    387.41277    33386          450 
 1713000    288.48566   -70.712028    371.43211    33368          432 
 1714000    299.30655   -69.498512    394.78276    33379          443 
 1715000    298.36393   -71.024856     393.3691    33379          443 
 1716000    286.23732   -73.741688    355.95133    33354          418 
 1717000    298.41161   -72.283257     381.0317    33365          429 
 1718000    311.71007   -75.383177    436.22256    33406          470 
 1719000    292.63204   -68.982911    379.79905    33372          436 
 1720000    296.77311   -82.220621    347.79565    33327          391 
 1721000    293.76249   -74.253873      363.431    33349          413 
 1722000    295.60336   -80.319075    384.09061    33372          436 
 1723000    299.22474   -80.666186    406.27899    33392          456 
 1724000    293.35705   -85.769927    412.67292    33408          472 
 1725000     291.3347   -90.616989    377.07161    33370          434 
 1726000    308.09372   -82.245181    371.07803    33340          404 
 1727000    305.12146   -76.039577     374.1237    33348          412 
 1728000    287.85577   -95.795018    383.65546    33383          447 
 1729000    314.03537   -80.584221    415.33018    33380          444 
 1730000    296.20308   -86.559872    409.49629    33400          464 
 1731000    303.66611   -89.515085    412.52479    33391          455 
 1732000    286.46847   -91.495155    402.82036    33407          471 
 1733000    283.82779   -86.866924    386.09352    33393          457 
 1734000    292.53828    -82.45757    375.95337    33367          431 
 1735000    274.43648   -83.758005    361.82161    33378          442 
 1736000    295.33433   -78.639507    387.53721    33377          441 
 1737000    301.18476   -86.066116    385.33804    33365          429 
 1738000    301.47861   -89.635412    417.30792    33401          465 
 1739000    286.73644   -88.759056     383.9994    33386          450 
 1740000     309.0804    -83.27338    375.67297    33344          408 
 1741000    290.02928   -82.190345    382.56521    33377          441 
 1742000    299.72523   -86.117634    378.67568    33360          424 
 1743000    273.39628   -71.095171    339.54435    33353          417 
 1744000    297.65783   -80.085907    368.24912    33351          415 
 1745000    287.27991   -74.890263    360.71806    33357          421 
 1746000    271.51974   -73.496861     348.8928    33368          432 
 1747000    280.91657   -66.864465    346.25847    33350          414 
 1748000     282.8154   -78.740874    367.77263    33373          437 
 1749000    330.66922    -74.29828    421.98305    33365          429 
 1750000     307.1686   -71.043678    397.79886    33368          432 
 1751000    306.22535   -73.845174    387.75162    33361          425 
 1752000    300.64606   -72.774137    366.76226    33346          410 
 1753000    284.67728   -75.139752    357.35696    33358          422 
 1754000    298.35696   -75.155828    368.77272    33351          415 
 1755000     306.2626   -79.880049    381.03979    33354          418 
 1756000    274.21501   -81.544031    350.56588    33365          429 
 1757000    283.08936   -83.919314    364.25139    33368          432 
 1758000    307.97479   -89.034935    413.87454    33387          451 
 1759000    271.14171   -90.194055    368.45544    33389          453 
 1760000    281.83918   -79.073292    352.12396    33356          420 
 1761000    315.74493   -87.322714    402.84555    33364          428 
 1762000    287.32796   -82.335808    377.16262    33377          441 
 1763000    272.75009   -93.996292    386.08491    33408          472 
 1764000    292.86302   -89.628067    385.91997    33379          443 
 1765000    303.81388   -88.325988    392.24506    33366          430 
 1766000    286.96693   -82.507671    338.58705    33331          395 
 1767000    312.71951   -81.938954    436.20594    33404          468 
 1768000    293.81655   -84.162741     384.8749    33375          439 
 1769000    274.27796   -84.095454    355.91045    33372          436 
 1770000    290.67833   -82.239883    373.05353    33367          431 
 1771000    289.97622   -84.723968    377.86914    33374          438 
 1772000    270.64795   -90.034297     340.3056    33358          422 
 1773000    296.93352   -90.790639    408.77642    33397          461 
 1774000    309.75219   -85.455847    397.74891    33367          431 
 1775000     304.4332    -75.02665    423.06478    33403          467 
 1776000    305.68887   -86.958611    417.13987    33394          458 
 1777000    302.49373   -92.317321    409.66135    33388          452 
 1778000    290.13823   -76.203158    364.63926    33357          421 
 1779000    311.46697   -92.786351    408.00316    33376          440 
 1780000     289.5316   -83.168603     356.0462    33348          412 
 1781000    259.98062   -88.642559    347.28507    33385          449 
 1782000    297.27195   -98.619874    400.56024    33389          453 
 1783000    299.46607   -96.844663    424.31473    33412          476 
 1784000     282.0863   -90.586764    368.56715    33375          439 
 1785000    291.72742   -87.337533    376.79766    33370          434 
 1786000    288.89068    -83.74865    380.90894    33379          443 
 1787000    296.09009   -87.019994    376.45075    33363          427 
 1788000    303.62522   -85.657682    369.62777    33344          408 
 1789000    300.81652   -93.579792    410.10998    33393          457 
 1790000    305.01987   -93.573881    422.44685    33401          465 
 1791000    285.15945   -89.047326    366.22488    33367          431 
 1792000    287.53744   -93.298558     390.5016    33390          454 
 1793000    270.63036   -95.164172    380.55761    33408          472 
 1794000    294.77586   -100.00943    378.81962    33368          432 
 1795000    303.27074   -90.649876    426.93286    33409          473 
 1796000    284.25352   -82.644242    368.78365    33371          435 
 1797000     298.5864   -81.322502    377.08694    33360          424 
 1798000    278.48176   -75.125373    381.24715    33396          460 
 1799000    276.41117   -80.672068    408.19533    33432          496 
 1800000    286.66592   -86.799935    395.88408    33399          463 
 1801000    301.21106   -84.531495    361.15977    33339          403 
 1802000    285.93366   -81.735346    357.13704    33356          420 
 1803000    301.47856    -80.33816    413.46155    33397          461 
 1804000    296.37477   -82.933789     406.4757    33394          458 
 1805000    280.87197   -76.403526    377.01008    33387          451 
 1806000    301.81306   -78.460562    370.29495    33348          412 
 1807000    271.88586   -68.105127    358.68103    33379          443 
 1808000    296.86068   -80.792496    364.57525    33349          413 
 1809000    309.87857   -82.479909    429.59419    33402          466 
 1810000    287.57386   -79.105894    400.05178    33403          467 
 1811000     302.9994   -85.595747    411.05093    33391          455 
 1812000    295.59899   -90.915827     395.0353    33382          446 
 1813000    269.92777   -92.869423    356.23216    33377          441 
 1814000    296.40679   -84.877267    406.58647    33395          459 
 1815000    309.73845   -84.981104    414.02355    33385          449 
 1816000     293.7708   -84.803376    385.03181    33376          440 
 1817000    302.29121   -81.585394    404.59317    33385          449 
 1818000    322.22433   -79.503547    414.68162    33367          431 
 1819000    285.22694     -82.2906    391.80092    33397          461 
 1820000    291.61698   -77.669248    405.96293    33404          468 
 1821000    306.54522   -65.070881    375.96013    33348          412 
 1822000    291.60546   -75.557724    367.59435    33359          423 
 1823000     266.9487   -76.420827    351.31467    33378          442 
 1824000    275.35828    -71.09801    347.79889    33360          424 
 1825000    299.16191   -72.121266    377.57332    33360          424 
 1826000    296.32659   -74.272173    362.36776    33347          411 
 1827000    286.29438   -71.600274    355.36051    33353          417 
 1828000    300.63578   -77.803836    362.48312    33340          404 
 1829000    306.95568   -80.405915    429.29313    33406          470 
 1830000    296.00834    -84.79612    387.81325    33375          439 
 1831000    283.96149   -79.451536    365.50438    33368          432 
 1832000    286.64369   -69.627825    367.53482    33367          431 
 1833000     306.7964    -72.54956    392.55948    33366          430 
 1834000    295.82781   -67.198795    361.91104    33346          410 
 1835000    300.46644   -66.170086    363.54203    33342          406 
 1836000    292.23701   -69.704699    377.48816    33369          433 
 1837000    290.53145   -67.777426    377.23138    33370          434 
 1838000    295.19087   -64.505261    350.40122    33334          398 
 1839000    303.21192   -84.695102     396.2527    33375          439 
 1840000    294.23446   -73.376127    376.18787    33365          429 
 1841000    285.96971   -83.561784      381.119    33384          448 
 1842000    294.20875   -84.050451    382.82442    33371          435 
 1843000    290.51361    -86.54492    391.34681    33388          452 
 1844000    287.53083   -84.066205    376.62419    33375          439 
 1845000    294.18251   -83.272123     369.8057    33357          421 
 1846000    309.20602   -94.581441    409.29689    33380          444 
 1847000    302.13015   -93.124155    435.12518    33420          484 
 1848000    305.28525   -82.837539    401.83704    33376          440 
 1849000     308.1247    -81.12704    419.09553    33393          457 
 1850000    300.38034   -80.486446    388.81196    33370          434 
 1851000    278.75106   -70.929853    353.47111    33362          426 
 1852000    292.43836   -79.772454    366.43722    33357          421 
 1853000     281.1238   -73.076779    356.49077    33362          426 
 1854000    294.86016   -88.673393    393.43809    33383          447 
 1855000    332.74603   -89.525818     441.6713    33381          445 
 1856000    300.76193    -79.12669    374.12359    33354          418 
 1857000    295.54112   -79.132716    379.50752    33367          431 
 1858000    289.18594   -87.942004    370.36288    33365          429 
 1859000    293.20893   -85.995588     386.0377    33378          442 
 1860000    298.06066   -85.112627    392.98498    33378          442 
 1861000    307.91309   -84.458611    417.71787    33391          455 
 1862000    283.97598   -82.404609      384.877    33391          455 
 1863000    286.08626   -83.073185    368.43059    33369          433 
 1864000    303.21392   -83.623122    400.87811    33380          444 
 1865000    301.45894   -73.087015    386.84178    33367          431 
 1866000     299.4182   -82.597479    413.53837    33400          464 
 1867000     303.4074    -75.97175     395.5615    33374          438 
 1868000    272.11231   -75.940387    342.83315    33359          423 
 1869000    303.99823   -97.585823    392.49405    33368          432 
 1870000    288.32655   -89.087372    382.83218    33382          446 
 1871000     287.5187   -88.481046     402.1108    33405          469 
 1872000    287.22829   -86.266412    385.48838    33387          451 
 1873000    294.31376   -80.883043    420.76097    33412          476 
 1874000    295.56949   -82.984088    418.66039    33411          475 
 1875000    278.96944   -88.639687    365.40149    33374          438 
 1876000    297.55889   -87.767685    391.46151    33377          441 
 1877000    284.89732   -90.098214     374.7109    33377          441 
 1878000    284.33777   -90.679663    373.27964    33377          441 
 1879000    307.59454   -89.666193    422.91453    33396          460 
 1880000    297.13542   -95.469866    420.88613    33410          474 
 1881000    296.64267   -96.675353    392.48915    33380          444 
 1882000    298.22703   -99.700583    399.99139    33386          450 
 1883000    281.75342   -98.895008    412.52359    33427          491 
 1884000    294.37395   -90.918699    406.28477    33399          463 
 1885000    305.30289   -93.391097    414.75646    33391          455 
 1886000    304.54164   -90.109072    422.10525    33401          465 
 1887000    283.43128   -97.295794    407.65201    33419          483 
 1888000    300.59487   -101.73102    448.15787    33437          501 
 1889000    315.59678   -106.44166    451.61965    33416          480 
 1890000     308.8473   -97.172464    409.15482    33381          445 
 1891000    281.50148   -93.437778    405.27119    33419          483 
 1892000    305.81927   -90.449622    414.96024    33392          456 
 1893000    294.21878   -93.626344    407.46212    33401          465 
 1894000    287.53231   -95.691653    392.52318    33394          458 
 1895000    290.40011   -104.57431    392.14876    33390          454 
 1896000    286.12986   -87.558534    406.26624    33411          475 
 1897000    301.01143   -85.074097    421.31606    33405          469 
 1898000    299.07682   -93.419283    399.91841    33385          449 
 1899000    277.16744   -96.171495    383.56894    33401          465 
 1900000    296.29439   -96.291968    412.08731    33403          467 
 1901000     294.7389   -91.778839     396.9389    33386          450 
 1902000    310.65428   -97.256764    440.46451    33412          476 
 1903000    299.03447   -92.340885    396.25231    33381          445 
 1904000    294.31883   -88.495784    378.34844    33368          432 
 1905000    294.80816   -89.287479    386.75396    33377          441 
 1906000    311.26963   -81.465476    407.90547    33376          440 
 1907000    285.13971   -77.193901    397.42433    33403          467 
 1908000     292.5466   -82.449929    371.49447    33362          426 
 1909000    305.24788   -81.329506     354.1312    33325          389 
 1910000    293.84759   -71.074494    344.77982    33330          394 
 1911000    313.90468     -79.3911    392.21167    33355          419 
 1912000    336.69417    -83.12625    443.69916    33377          441 
 1913000    290.09142   -87.543118    371.49505    33366          430 
 1914000    287.48791   -92.369949    357.62795    33353          417 
 1915000    308.69849   -86.382819    410.93716    33382          446 
 1916000    285.34166   -89.345507    366.40052    33367          431 
 1917000    299.04987   -86.652147     417.8522    33405          469 
 1918000    284.59543   -85.896798    388.20088    33394          458 
 1919000    292.76852   -77.962366    396.54494    33391          455 
 1920000    308.91807   -78.922316    388.56125    33358          422 
 1921000    291.49173   -97.980064    387.54594    33381          445 
 1922000    288.85146   -93.690372    381.49853    33380          444 
 1923000    293.63646   -84.342684    365.41159    33354          418 
 1924000    271.04261   -87.727931     347.6899    33363          427 
 1925000    296.01906   -87.210681    394.66609    33384          448 
 1926000    291.16061   -94.878482     396.6087    33392          456 
 1927000    285.91739   -94.851645     413.1574    33421          485 
 1928000    278.76517    -82.12423    400.84389    33418          482 
 1929000    280.79163   -83.794191    357.17147    33363          427 
 1930000    293.65078   -73.122973    371.86664    33360          424 
 1931000     276.6447   -71.929106    360.82123    33373          437 
 1932000    292.10094   -72.767321    402.46698    33398          462 
 1933000    292.33503   -79.571496    380.84575    33374          438 
 1934000    289.23344   -76.068309    376.28504    33371          435 
 1935000    309.80057   -70.868516    395.29555    33361          425 
 1936000    303.31083   -77.068874     411.3434    33391          455 
 1937000    291.79574   -74.720364    386.62889    33381          445 
 1938000    300.86297   -78.180902    381.22218    33362          426 
 1939000    292.22802   -87.472836    380.49884    33373          437 
 1940000    306.85868   -85.015654    410.66003    33385          449 
 1941000    299.23372    -92.32303    397.36409    33382          446 
 1942000    278.36519   -89.103676    378.55779    33393          457 
 1943000    273.30319   -82.963487    369.91807    33386          450 
 1944000    283.99264   -85.501205    362.34037    33364          428 
 1945000    299.71297   -92.343348     418.4148    33405          469 
 1946000    297.14073   -74.830749    370.99399    33354          418 
 1947000     300.6509   -82.173021     422.0141    33407          471 
 1948000    290.72043   -85.738081    404.36027    33403          467 
 1949000    279.87244   -90.863362    353.90723    33361          425 
 1950000     294.9751   -86.915419    408.69606    33401          465 
 1951000    280.57913   -86.925241    364.99373    33373          437 
 1952000    301.48247   -85.979345    410.24936    33393          457 
 1953000    292.10206   -91.060025    391.55914    33385          449 
 1954000    286.13758   -81.112222    366.82244    33367          431 
 1955000    303.37932   -77.536214    390.48826    33368          432 
 1956000     301.6931   -86.508595    382.29426    33362          426 
 1957000    301.38897   -74.484397    382.83483    33363          427 
 1958000    284.43004   -80.480593    368.61189    33371          435 
 1959000    311.67083   -75.550896    396.25405    33363          427 
 1960000    273.39366   -61.761978    357.92809    33375          439 
 1961000    292.28037    -67.67398    406.86162    33403          467 
 1962000    280.71966   -68.924502    356.85926    33361          425 
 1963000      292.603    -74.66292    371.47192    33360          424 
 1964000     292.9002   -72.493933     382.6255    33375          439 
 1965000    282.23708   -63.469197     385.1108    33393          457 
 1966000    293.03192   -65.766242    379.91354    33371          435 
 1967000     289.3258   -71.528762    385.71855    33383          447 
 1968000      283.101   -69.617335    352.64414    33353          417 
 1969000    287.84468   -63.315898    386.67058    33387          451 
 1970000    308.33839   -54.424705    369.99501    33338          402 
 1971000    276.25022   -71.022086    359.33371    33373          437 
 1972000    307.43621   -64.748949    415.20396    33389          453 
 1973000    284.10384   -67.234301    380.36876    33385          449 
 1974000    309.33578   -65.521776    398.17886    33367          431 
 1975000    296.88663   -65.716285    392.16822    33380          444 
 1976000    303.96575   -72.382919    409.62372    33388          452 
 1977000    289.80286   -74.570732    378.18233    33374          438 
 1978000    277.95084   -76.709067    384.08428    33400          464 
 1979000    307.04973   -69.457519    391.76461    33365          429 
 1980000    285.39063    -67.10841    345.90489    33343          407 
 1981000    280.35029   -78.126211    339.29643    33342          406 
 1982000    290.14657   -79.307612    376.27114    33370          434 
 1983000    309.26287   -84.695397    388.39862    33358          422 
 1984000    297.46717   -89.179909      381.266    33366          430 
 1985000    299.60571   -86.795166    383.80758    33366          430 
 1986000    270.49913   -83.600661    353.87933    33374          438 
 1987000    284.48172   -91.959439    392.76137    33400          464 
 1988000    294.44484   -90.612053    381.79999    33371          435 
 1989000    307.06188   -86.478496    405.39935    33379          443 
 1990000    298.07273   -80.668582    372.19778    33355          419 
 1991000    286.65599   -74.576834    345.53412    33340          404 
 1992000    299.24566   -77.799119    361.45226    33341          405 
 1993000    300.63362   -75.790898    373.25048    33353          417 
 1994000    273.16487    -78.77037    343.92772    33359          423 
 1995000     299.5018   -87.156154    380.96452    33363          427 
 1996000    286.49272   -81.753809    368.72359    33368          432 
 1997000    277.76782   -83.379703    406.74468    33428          492 
 1998000    307.91236     -81.3654    431.92622    33407          471 
 1999000    303.44714   -83.070243    418.25107    33399          463 
 2000000    306.35823   -90.986612    429.41767    33407          471 
 2001000    293.80922   -82.944518    377.29599    33367          431 
 2002000    308.49536   -73.248232    410.92876    33382          446 
 2003000    294.41593   -78.552886    388.77709    33376          440 
 2004000    273.94259   -71.341497    349.05317    33364          428 
 2005000    298.53548   -76.588766    386.42235    33370          434 
 2006000    289.78613    -83.04645    375.99468    33372          436 
 2007000    277.72772   -77.773063    382.75211    33398          462 
 2008000    304.01446   -79.290085    411.95655    33391          455 
 2009000    272.87139    -79.93077    366.97005    33387          451 
 2010000    289.78124   -83.766198    414.41421    33416          480 
 2011000    291.44029   -67.790857    357.32149    33347          411 
 2012000    292.88844   -79.421821    362.37983    33350          414 
 2013000    310.38884   -78.844634    423.31077    33393          457 
 2014000    295.55563    -87.97862    387.57572    33376          440 
 2015000    296.21002   -94.715007    408.11887    33399          463 
 2016000    297.78507   -96.560782    379.83649    33363          427 
 2017000    289.04523   -86.961601    404.35664    33405          469 
 2018000    296.73356   -82.107099    354.54114    33336          400 
 2019000    305.04784    -82.82293     372.4132    33346          410 
 2020000    311.73324   -75.577563    359.44134    33321          385 
 2021000    275.34984   -75.372149    353.95179    33368          432 
 2022000    283.66736   -75.650724     374.4995    33379          443 
 2023000    306.74189   -84.372227    404.95152    33379          443 
 2024000    290.21952   -91.915661    404.48573    33404          468 
 2025000    302.94559   -83.940122    395.18515    33374          438 
 2026000    282.93835   -76.379667    390.66347    33400          464 
 2027000    272.15585   -83.876075    371.93251    33395          459 
 2028000    290.61163   -81.424345    410.46465    33410          474 
 2029000    293.13877   -91.072003    394.45244    33388          452 
 2030000    291.04224   -89.549981    392.34965    33389          453 
 2031000    279.01321   -83.429668    373.42936    33385          449 
 2032000    282.04375   -82.487897    363.20643    33368          432 
 2033000    303.39755   -78.116943    401.16686    33380          444 
 2034000    287.47195   -84.508396    357.86682    33354          418 
 2035000    280.05322   -92.693921    366.34337    33375          439 
 2036000    274.94322   -86.361878    330.37045    33338          402 
 2037000    284.25232   -91.619618    360.60301    33361          425 
 2038000    302.14333   -90.199406    398.77241    33379          443 
 2039000    287.24361   -87.832213    361.27863    33358          422 
 2040000    306.98283   -81.066222    386.68447    33359          423 
 2041000    280.19493   -77.412338    346.08602    33351          415 
 2042000    307.75251   -84.219257    403.67225    33377          441 
 2043000    283.77028   -83.988767     352.1181    33353          417 
 2044000    297.18971   -97.397198    403.95712    33392          456 
 2045000    291.71701   -85.222929    407.14245    33404          468 
 2046000    292.58605   -82.446819    378.67077    33370          434 
 2047000    304.80243   -83.057283    380.07729    33355          419 
 2048000    282.24756   -86.011142    394.12209    33404          468 
 2049000    293.94547   -84.936437     408.8917    33403          467 
 2050000     300.1104   -75.802459    386.63051    33368          432 
 2051000    300.02883   -82.144881    382.99616    33365          429 
 2052000    299.57814   -76.548348    409.54437    33395          459 
 2053000    286.87727   -79.408317    371.69442    33370          434 
 2054000    287.62315   -83.757224    394.92868    33397          461 
 2055000    294.27939   -88.853898    374.03839    33363          427 
 2056000    280.71121   -85.434655     387.3668    33399          463 
 2057000    282.08017   -84.701299    380.09342    33389          453 
 2058000    316.80505   -81.884322    424.10068    33385          449 
 2059000    297.22617   -81.861902    417.11506    33407          471 
 2060000    291.99743   -89.007901    400.64271    33396          460 
 2061000    309.50118   -82.785291    399.27646    33368          432 
 2062000    302.47609   -80.165942    371.50218    33349          413 
 2063000    310.52466   -83.529688    413.47735    33383          447 
 2064000    296.52253   -84.090819    396.83297    33385          449 
 2065000     309.0468   -80.131708    405.35038    33377          441 
 2066000    301.85435   -71.506548    390.92735    33369          433 
 2067000    295.12097   -72.535072     380.4497    33369          433 
 2068000    274.81836   -73.450622    345.82692    33359          423 
 2069000    302.96928   -70.977912    368.83185    33344          408 
 2070000    283.58757   -67.738826      372.645    33377          441 
 2071000    293.79518   -77.533427    357.85816    33345          409 
 2072000    309.80285   -68.616273    377.97252    33346          410 
 2073000    292.51274   -70.829509    356.80601    33344          408 
 2074000     302.1904    -76.90253    379.58011    33358          422 
 2075000    283.55766   -69.563427    351.12706    33351          415 
 2076000    287.21927   -74.666798    353.21644    33348          412 
 2077000    298.07193   -76.388634    371.49846    33354          418 
 2078000    294.18775   -80.247416    385.22144    33375          439 
 2079000    279.63913   -79.743263    347.31828    33353          417 
 2080000    286.78014   -77.453263    351.57197    33348          412 
 2081000    310.60653   -77.393856    399.35102    33368          432 
 2082000    292.45509   -73.416109    350.13755    33338          402 
 2083000    291.56077   -67.068361    350.50499    33340          404 
 2084000    283.80856   -73.334104    407.47902    33418          482 
 2085000     284.3457   -70.139286    356.13343    33357          421 
 2086000    286.52019   -71.159754    357.50098    33355          419 
 2087000     285.4955   -74.626345     363.9581    33364          428 
 2088000    284.22395    -76.33707    395.17566    33403          467 
 2089000    279.41202   -72.487813    394.07707    33409          473 
 2090000    307.46749   -76.159293    432.30966    33408          472 
 2091000     288.7433   -77.881558    389.37734    33388          452 
 2092000    301.96548   -74.961123    414.60214    33397          461 
 2093000    294.03309     -74.7659    396.41456    33389          453 
 2094000    291.64333   -66.922911    360.47874    33350          414 
 2095000    290.99547   -66.569402    372.18202    33366          430 
 2096000    284.24611   -68.491274    367.16352    33370          434 
 2097000    277.00499   -61.552939    358.42962    33370          434 
 2098000     310.1401   -72.017081    375.51673    33343          407 
 2099000    307.77615   -65.778294    387.94834    33359          423 
 2100000    277.93725   -67.795026     369.9387    33382          446 
 2101000    300.14826   -78.744806    393.54554    33376          440 
 2102000    305.27617   -74.014766    409.23294    33384          448 
 2103000    299.54655    -80.74103    414.70009    33401          465 
 2104000     314.4562    -75.86296    418.53393    33383          447 
 2105000     295.6576   -78.267975    354.33283    33339          403 
 2106000    286.77282   -76.973187    349.13844    33345          409 
 2107000     281.5762   -84.526567    387.71346    33398          462 
 2108000     304.4224    -83.12934    405.93439    33383          447 
 2109000    295.52265   -78.397032    369.94464    33355          419 
 2110000    290.37942   -79.260412    382.39549    33378          442 
 2111000    281.26549   -76.592202    386.46805    33397          461 
 2112000    295.37264   -79.684111    386.01623    33374          438 
 2113000    293.21453   -73.675457    374.85304    33364          428 
 2114000    289.96413   -81.545046    391.60005    33390          454 
 2115000    307.42309    -90.12703     426.2014    33402          466 
 2116000    305.80895    -86.30807    401.80563    33377          441 
 2117000    281.96327   -72.454724     351.7334    33355          419 
 2118000    278.60212   -72.611327    375.28333    33388          452 
 2119000    302.16351   -83.741798    374.46594    33351          415 
 2120000    295.78043   -81.272396    396.07906    33386          450 
 2121000    325.84254   -73.267993    425.19602    33374          438 
 2122000    272.73651   -72.915086    388.04291    33413          477 
 2123000     288.8414   -72.344336    392.40812    33392          456 
 2124000    287.08134   -77.675469    374.73051    33374          438 
 2125000    275.56987   -88.983866    359.24387    33374          438 
 2126000    287.81927   -78.240409    385.60876    33386          450 
 2127000    297.11029    -69.69828    396.87383    33385          449 
 2128000    284.74551   -74.107685    372.72674    33376          440 
 2129000     300.6698   -76.561271    386.42657    33368          432 
 2130000    298.70639   -81.152956    380.52449    33364          428 
 2131000    300.38478   -79.956067    368.22225    33348          412 
 2132000    289.83884   -67.580098    350.86359    33343          407 
 2133000    292.72078   -73.180125    371.20011    33361          425 
 2134000    292.44397    -83.38827    369.99902    33361          425 
 2135000    313.71366   -74.045184    375.14621    33338          402 
 2136000    289.38763   -76.417644    344.97873    33336          400 
 2137000    290.48838   -76.515323    362.30036    33355          419 
 2138000    302.58179   -92.006253    394.84297    33374          438 
 2139000    308.09423   -79.091237    424.01017    33397          461 
 2140000    281.46049    -79.62395    369.17216    33376          440 
 2141000    287.15153   -87.139168    391.05782    33392          456 
 2142000     284.1494   -72.369771     365.1117    33367          431 
 2143000    294.17394   -83.287953    397.61796    33390          454 
 2144000    296.21445   -73.585306    395.57665    33384          448 
 2145000    292.03014   -69.510352     397.3176    33391          455 
 2146000    294.84687    -66.91123    375.22245    33363          427 
 2147000    300.45751   -71.775084    379.11611    33360          424 
 2148000    292.36488   -69.813524    372.86203    33364          428 
 2149000     278.7133   -69.262092     344.8429    33352          416 
 2150000    303.30043   -79.017019    376.80435    33353          417 
 2151000    302.10494    -72.04432    372.39642    33349          413 
 2152000    273.64475   -70.040584    326.72245    33336          400 
 2153000    282.62572    -77.29767    395.32654    33406          470 
 2154000    309.23649   -78.615297    450.19001    33425          489 
 2155000    282.83719   -70.620387    362.85326    33366          430 
 2156000    291.33183   -71.676223    406.26576    33400          464 
 2157000    302.51432   -70.642136    412.89203    33392          456 
 2158000     299.9996   -70.681463    402.49845    33387          451 
 2159000    306.15708   -66.758604    400.68773    33375          439 
 2160000     277.1741   -72.685991     364.7186    33378          442 
 2161000    286.56013   -74.170295    378.44756    33379          443 
 2162000    301.39853   -63.756309    393.73065    33375          439 
 2163000    311.42695    -64.26978    379.97618    33346          410 
 2164000    294.10879   -60.598603    356.05403    33343          407 
 2165000    287.46257   -65.874931    349.85831    33344          408 
 2166000    296.68732   -57.383618    380.86211    33367          431 
 2167000    296.46426   -67.738793    356.77736    33340          404 
 2168000    292.73949   -65.559469    375.64592    33367          431 
 2169000    321.85832     -78.0065    389.84094    33342          406 
 2170000     277.5817   -64.309847    325.51493    33330          394 
 2171000    285.32848   -74.557363     364.4248    33365          429 
 2172000    292.57222   -74.515116    350.69337    33338          402 
 2173000    291.40468   -68.428455    355.09845    33345          409 
 2174000    300.92256   -70.737767    383.34488    33362          426 
 2175000    307.12585   -76.568711     438.8924    33415          479 
 2176000    297.71954   -66.599185    399.43001    33385          449 
 2177000    281.88893   -74.492165    376.99179    33385          449 
 2178000     296.5069   -76.951633    411.18721    33400          464 
 2179000    298.63116   -72.453629     404.3235    33390          454 
 2180000    301.98245   -71.431752    416.23405    33399          463 
 2181000     284.1061   -73.427486    346.06404    33345          409 
 2182000    274.06736   -74.921115    362.79248    33381          445 
 2183000    301.59944     -73.3634    385.00001    33365          429 
 2184000    277.48953   -77.672217    355.35931    33365          429 
 2185000    299.37599   -74.252555    385.12568    33367          431 
 2186000    302.60556   -73.893413    422.35345    33402          466 
 2187000      313.949   -85.776611    429.31958    33395          459 
 2188000    290.03317   -73.039734    387.35865    33384          448 
 2189000     317.7126   -83.614944    407.82735    33367          431 
 2190000    311.97126   -69.624067    442.80137    33410          474 
 2191000    297.69269   -90.328444    416.79561    33406          470 
 2192000    295.35177    -80.17049    383.22483    33372          436 
 2193000    299.68411   -91.583964    428.57023    33416          480 
 2194000     292.2994   -87.520775    413.28284    33410          474 
 2195000    307.08759   -94.503753    414.34185    33389          453 
 2196000    298.66086   -88.483345    409.88081    33397          461 
 2197000    288.42217   -92.959808    376.02604    33374          438 
 2198000    292.13321    -80.80323    365.05441    33355          419 
 2199000    294.82949   -79.144275    354.31537    33339          403 
 2200000    293.92773   -84.196949    366.92828    33355          419 
 2201000    275.58961   -83.844695    368.20364    33381          445 
 2202000    296.45306   -81.385764    417.38639    33408          472 
 2203000     287.2072   -92.941936    371.49912    33370          434 
 2204000    297.74795   -93.758364    390.24196    33375          439 
 2205000    296.91008    -93.26083    393.36592    33381          445 
 2206000    298.91038   -90.027176    416.91393    33404          468 
 2207000    292.06458    -97.47784    397.63667    33393          457 
 2208000    303.65861   -83.758366    402.82162    33380          444 
 2209000    292.63686   -82.034387     412.4412    33409          473 
 2210000    293.82774   -74.888762    385.93002    33377          441 
 2211000    313.96068   -72.757666    430.70892    33396          460 
 2212000    293.64538   -64.270333    344.95898    33330          394 
 2213000    301.99708   -71.352067    393.80893    33374          438 
 2214000    290.83755   -68.248777    391.33248    33387          451 
 2215000    312.68637   -72.041001    407.33668    33374          438 
 2216000    298.01586   -67.370213    389.70976    33375          439 
 2217000    299.46308   -78.070506    380.13579    33362          426 
 2218000    303.13581    -79.11834    409.67504    33389          453 
 2219000    277.48392   -79.203114    380.41769    33396          460 
 2220000    289.90869   -78.022834    371.14561    33366          430 
 2221000      274.819   -85.423624    378.30466    33397          461 
 2222000    300.94126   -99.136719    419.83293    33404          468 
 2223000    292.60359    -92.37056    367.45955    33358          422 
 2224000    290.51611   -73.433379     360.0395    33352          416 
 2225000    273.37747   -82.157179    362.09143    33380          444 
 2226000    293.96514   -81.228664    368.30715    33357          421 
 2227000    274.02692   -82.767129    350.19745    33363          427 
 2228000    281.92621   -86.221021    380.10255    33389          453 
 2229000    287.18476   -82.031204    383.14112    33384          448 
 2230000    292.80401   -86.105374    404.13305    33398          462 
 2231000     296.4262   -88.385646    384.76894    33372          436 
 2232000     286.5919   -80.232538     410.8629    33416          480 
 2233000    308.59756   -85.767496    412.41579    33384          448 
 2234000    293.86986   -71.662913     415.9431    33409          473 
 2235000    274.69996    -69.89802    351.63259    33366          430 
 2236000    296.50149   -77.317015    387.15571    33374          438 
 2237000    302.30388    -85.21823    391.01548    33370          434 
 2238000    290.08861   -83.779002    370.54507    33364          428 
 2239000    290.45854   -77.093901    382.08034    33378          442 
 2240000     272.2136   -76.729315    367.47379    33389          453 
 2241000    275.97709   -86.371941    342.72764    33353          417 
 2242000    286.84143   -89.741556    354.39092    33351          415 
 2243000    315.00089   -85.140974    405.21297    33368          432 
 2244000    312.18262   -79.482337     412.5793    33380          444 
 2245000     303.0899   -73.353486    406.12996    33385          449 
 2246000    287.62979   -79.170586    383.66427    33384          448 
 2247000    291.35512   -68.923207    388.46099    33383          447 
 2248000    291.57731   -76.765257    387.09945    33381          445 
 2249000    289.37304   -73.596644     378.4025    33375          439 
 2250000    312.14932   -78.033878     404.1043    33371          435 
 2251000    267.30971   -78.910149    348.54404    33374          438 
 2252000    301.59082   -73.854714    385.75486    33364          428 
 2253000    324.93803   -69.415064    429.99241    33380          444 
 2254000    282.53392   -73.270505     384.8049    33392          456 
 2255000    290.71591   -75.830827    417.14364    33418          482 
 2256000    278.94322   -70.048396    355.47065    33363          427 
 2257000    313.44422   -73.152099    364.78997    33326          390 
 2258000    287.31399    -71.86171    364.69989    33362          426 
 2259000    289.32871   -75.522759    350.46571    33342          406 
 2260000    281.02343   -76.156524    368.82938    33377          441 
 2261000    272.21731   -81.552633    381.96157    33407          471 
 2262000    281.29827   -79.501642    375.62412    33384          448 
 2263000    300.21761   -75.437011    422.41158    33408          472 
 2264000    290.20577    -78.78533    411.42726    33411          475 
 2265000    309.28018   -74.640719    403.17836    33374          438 
 2266000    283.30651   -70.466069    368.72666    33373          437 
 2267000    313.96419   -78.678818    403.42836    33367          431 
 2268000    280.42433   -71.412212    367.87068    33377          441 
 2269000    282.51361   -73.010715    377.29485    33384          448 
 2270000    306.86875   -80.305609    398.29495    33372          436 
 2271000    277.86718     -82.6826    379.40259    33391          455 
 2272000    292.30379   -88.735834    435.92546    33437          501 
 2273000    292.83667   -79.473537     419.4142    33417          481 
 2274000     300.7463   -83.275117    403.77525    33386          450 
 2275000    293.62424   -70.514349    396.39932    33388          452 
 2276000    295.49336   -80.374672    387.04957    33376          440 
 2277000     304.0746   -83.980512    400.39896    33377          441 
 2278000     285.8499   -84.692447    392.54465    33395          459 
 2279000    306.19048   -78.936603    396.46708    33369          433 
 2280000    290.56204   -76.826538    368.63543    33362          426 
 2281000    289.43121   -85.717391    394.40013    33393          457 
 2282000    306.31866   -80.994992    408.25166    33384          448 
 2283000    296.10935   -89.831769    384.83027    33372          436 
 2284000    289.37227   -83.669894    395.27393    33395          459 
 2285000    296.59783   -80.887251     383.1901    33370          434 
 2286000    298.76174   -71.508595    389.38413    33373          437 
 2287000    272.40948   -86.881932    370.14463    33392          456 
 2288000    311.40286   -90.581947    437.06496    33407          471 
 2289000    285.92081   -76.812588    371.24736    33372          436 
 2290000    270.38398   -76.624288    337.91222    33356          420 
 2291000    291.88637   -77.927104    387.21134    33381          445 
 2292000    310.09173    -80.71986    428.68974    33399          463 
 2293000    283.18751   -84.442566    376.20024    33382          446 
 2294000    289.63483   -80.511752    407.99721    33409          473 
 2295000    299.12178   -76.830843    424.30894    33412          476 
 2296000    296.18429    -80.43178    400.94487    33390          454 
 2297000    287.12238   -77.672051    368.26665    33367          431 
 2298000    285.56159   -81.810026    380.50662    33384          448 
 2299000    306.41727   -79.343117     370.9522    33341          405 
 2300000    296.45777   -80.171036    400.34904    33389          453 
 2301000    298.64235   -89.578777    403.35674    33390          454 
 2302000    279.33301   -80.205815    348.56471    33353          417 
 2303000    277.97389   -73.233862    363.00578    33374          438 
 2304000    275.99137   -83.659055    342.94986    33353          417 
 2305000     306.7972   -83.180826     383.0917    33354          418 
 2306000    307.71402   -86.679228    410.37982    33383          447 
 2307000    270.47559   -76.704527    339.54592    33358          422 
 2308000     284.6123   -83.975085    361.08119    33362          426 
 2309000    308.23171   -82.374185    390.94478    33362          426 
 2310000    281.59021   -81.180954    366.42174    33372          436 
 2311000    301.20171   -81.654968    404.23488    33387          451 
 2312000    321.75311   -88.406229    450.85044    33407          471 
 2313000    300.08602   -79.544916    426.80104    33413          477 
 2314000    272.13714   -77.937878    366.89428    33389          453 
 2315000    274.90036   -89.671239    348.45105    33361          425 
 2316000    287.41936    -82.55192    385.89424    33387          451 
 2317000    278.50021   -79.648877    384.80563    33400          464 
 2318000    288.83522    -82.07546    357.49755    33352          416 
 2319000    304.66199   -82.529016    398.40784    33374          438 
 2320000    278.70911   -84.334225    384.74103    33400          464 
 2321000    283.23912   -82.236022    386.56136    33394          458 
 2322000    288.70635   -85.464264    394.03826    33394          458 
 2323000    301.14486   -89.017069     394.9624    33376          440 
 2324000    295.53074   -98.847776    434.31265    33429          493 
 2325000    295.14698   -86.143719     413.0936    33406          470 
 2326000    291.58344   -93.208207    403.93569    33401          465 
 2327000     313.5051   -85.382469    430.27907    33397          461 
 2328000    303.78592   -91.039072    405.08776    33383          447 
 2329000    318.21163   -77.857483     443.2261    33404          468 
 2330000    295.71385   -95.432778    427.87598    33421          485 
 2331000     272.8316   -86.975297    363.71344    33382          446 
 2332000    277.22021   -87.371746    361.94233    33373          437 
 2333000     285.3322   -80.377441    385.86165    33389          453 
 2334000     299.5926   -93.605279    419.58676    33404          468 
 2335000     291.4767   -94.282831    418.08204    33417          481 
 2336000    300.88657   -91.412538    417.71658    33401          465 
 2337000     293.1077   -93.460384    385.10923    33377          441 
 2338000    284.00577   -94.729132    388.14027    33395          459 
 2339000    302.87553   -79.681191    390.68531    33369          433 
 2340000    284.73467   -79.674396    364.57567    33365          429 
 2341000    281.07582   -79.144117    355.86702    33361          425 
 2342000    270.23096   -77.008806    346.26691    33366          430 
 2343000    303.10253   -77.587992    396.78961    33376          440 
 2344000    304.54492   -81.440648    395.11601    33372          436 
 2345000    285.52759    -87.44532    371.98575    33374          438 
 2346000    327.14625   -86.916362    437.60835    33385          449 
 2347000    301.63856   -81.184844    419.98049    33404          468 
 2348000    311.99779   -81.156526    430.04345    33398          462 
 2349000    299.62041   -97.631599     421.1458    33408          472 
 2350000    288.30431    -83.27087    376.57611    33374          438 
 2351000    276.29357   -80.655538    335.34584    33344          408 
 2352000    297.31814   -77.275988    388.76151    33374          438 
 2353000    291.43265   -80.916767    377.27346    33371          435 
 2354000    276.06997   -77.086872    345.95715    33355          419 
 2355000    262.48708   -89.303119    354.92455    33387          451 
 2356000     288.4072   -78.963565     382.0696    33381          445 
 2357000    281.39198     -86.6884    366.79635    33374          438 
 2358000    294.10692   -83.757322     414.3448    33409          473 
 2359000    288.84088   -89.192514     405.8542    33408          472 
 2360000     298.1162   -82.088986    445.35022    33438          502 
 2361000    295.71569   -85.396768    417.34509    33410          474 
 2362000    307.58487   -80.363037     398.9137    33372          436 
 2363000    280.44477    -71.77784    367.15777    33375          439 
 2364000    301.33578   -80.562749    387.14759    33368          432 
 2365000    269.58785   -76.338786      332.687    33350          414 
 2366000    282.89073    -87.10257    373.48891    33378          442 
 2367000    307.90075   -71.964539    387.87857    33359          423 
 2368000    297.88876   -73.334363    391.59715    33376          440 
 2369000      323.763   -69.827827    407.07628    33358          422 
 2370000    303.49947   -69.817416    374.98448    33350          414 
 2371000    289.02697   -62.643699    370.94414    33365          429 
 2372000    294.88451   -70.542645    368.82301    33356          420 
 2373000    294.35359   -51.886052    339.96778    33324          388 
 2374000    291.05678   -63.254297    369.06693    33361          425 
 2375000    301.07245   -66.064283    397.58542    33378          442 
 2376000    286.32149    -64.15678    383.56936    33386          450 
 2377000    284.56228   -73.151263    387.37918    33393          457 
 2378000     294.7574   -74.049148    376.57958    33363          427 
 2379000    310.34277   -69.966212    410.07463    33380          444 
 2380000     304.9875   -73.009831     391.3206    33367          431 
 2381000    269.62778   -68.748722    349.52081    33369          433 
 2382000    281.37611    -61.76782    379.05855    33387          451 
 2383000    290.90625   -64.080723    391.75488    33387          451 
 2384000    305.94974   -63.594738    387.75392    33358          422 
 2385000     305.0938   -71.337147    383.09333    33358          422 
 2386000    297.63921   -62.268288    401.08325    33389          453 
 2387000    273.52081   -61.030009    354.16514    33371          435 
 2388000    305.51227    -64.02443    412.79887    33390          454 
 2389000    313.03005   -61.143999    384.29444    33347          411 
 2390000    275.18231    -65.14165    341.61475    33350          414 
 2391000    294.66264   -72.562331    382.83251    33371          435 
 2392000    284.38179   -62.421768    373.09864    33377          441 
 2393000    283.95082   -63.157614    382.00007    33387          451 
 2394000    308.42521   -65.790306     401.8483    33374          438 
 2395000    297.24452   -70.958847    407.12309    33396          460 
 2396000    278.92898   -69.816554    359.73981    33369          433 
 2397000    291.72675   -65.004688    358.43319    33348          412 
 2398000    297.85657   -64.134949    368.70038    33352          416 
 2399000    278.09186   -60.229449    352.68029    33362          426 
 2400000     304.4274   -64.768757    403.99336    33382          446 
 2401000    289.46262     -67.8864    399.53891    33399          463 
 2402000    285.24888   -60.232472    376.43172    33378          442 
 2403000    317.38891   -64.677774    390.60146    33348          412 
 2404000    278.17871   -62.990551    337.28249    33343          407 
 2405000    332.16651   -68.391254    394.39866    33335          399 
 2406000    304.30206   -67.416368    392.58812    33368          432 
 2407000    305.29121   -67.191029    395.14665    33371          435 
 2408000    294.72039   -72.477762    377.28786    33366          430 
 2409000    294.77974   -70.557225    362.42004    33349          413 
 2410000    290.23813   -65.829498    378.79696    33374          438 
 2411000    307.83645   -65.658383    372.94295    33342          406 
 2412000    280.01555   -76.087282    327.03351    33328          392 
 2413000    294.36807   -79.833228    356.99207    33342          406 
 2414000    303.99992   -78.600625     380.0796    33354          418 
 2415000    296.61736   -77.970435    382.57208    33369          433 
 2416000    290.81602   -74.309538      356.911    33345          409 
 2417000    290.23534   -72.851718    394.22979    33390          454 
 2418000    287.90216   -87.856962    409.80913    33414          478 
 2419000    301.69671   -79.976715    405.33872    33385          449 
 2420000    282.86688   -68.181398    377.23714    33383          447 
 2421000    306.81948   -70.902132    401.77377    33374          438 
 2422000    297.72919   -73.205249    397.79407    33384          448 
 2423000    293.16739    -73.31449    378.08427    33368          432 
 2424000    296.53679   -71.984515    380.00375    33366          430 
 2425000     290.4468   -73.974422     369.5981    33363          427 
 2426000     302.9349   -80.656805    430.35408    33412          476 
 2427000     298.2472   -72.631723    413.25758    33400          464 
 2428000    297.79462   -75.696282    396.61353    33382          446 
 2429000    298.64766   -69.870237    365.42707    33347          411 
 2430000    305.06779   -72.082324    374.84565    33346          410 
 2431000    299.87275   -69.959079    395.39118    33379          443 
 2432000    273.13622   -72.316124    338.26332    33351          415 
 2433000    283.21748   -67.012592     361.5525    33365          429 
 2434000    291.91007   -73.905803    376.13045    33367          431 
 2435000    295.97681   -74.085064    375.08527    33362          426 
 2436000    285.76849   -83.076643    381.01784    33383          447 
 2437000    292.28273   -78.515425    364.57726    33355          419 
 2438000    294.03715   -80.326619    350.05572    33334          398 
 2439000    315.09563   -86.045858    400.95027    33362          426 
 2440000    306.66223   -86.700609    397.59559    33371          435 
 2441000    285.94241   -82.488229    393.19156    33398          462 
 2442000     298.5837   -83.075156    376.20302    33359          423 
 2443000    295.18913   -85.413385    394.15154    33384          448 
 2444000    280.71191   -79.012803    379.07308    33390          454 
 2445000    305.57431   -76.101075      427.641    33405          469 
 2446000    297.53119    -67.38723    384.65112    33370          434 
 2447000     301.3518   -58.013766    385.82492    33365          429 
 2448000    306.16415   -70.816519    373.36792    33346          410 
 2449000    293.16011   -60.187093    361.27896    33350          414 
 2450000    290.20788   -60.204047    383.36701    33378          442 
 2451000    297.99841   -65.304618    381.50856    33366          430 
 2452000    263.39664   -70.961508    349.17034    33381          445 
 2453000    290.55397    -79.28658     384.9034    33380          444 
 2454000    293.89122    -94.64554    403.24141    33397          461 
 2455000    279.67853   -80.295577    368.36186    33378          442 
 2456000    290.35718   -82.577256    379.99271    33375          439 
 2457000    281.30582   -78.780344     383.3708    33394          458 
 2458000    306.74035   -71.238056    425.41434    33402          466 
 2459000    303.86678   -69.223326    396.44805    33374          438 
 2460000    311.09807   -73.446165    398.72093    33366          430 
 2461000    294.25587   -78.688817    392.31373    33384          448 
 2462000    274.25197   -85.904053    382.48738    33404          468 
 2463000     302.5901   -68.670333    419.69407    33401          465 
 2464000    299.96138   -75.106909    416.51247    33402          466 
 2465000    257.94114   -76.853422      365.619    33412          476 
 2466000    289.08475    -76.65943     367.8794    33362          426 
 2467000    307.67618   -77.703566    431.50872    33407          471 
 2468000     286.8918   -83.798645    395.63425    33399          463 
 2469000    282.47753   -84.100187    370.80541    33376          440 
 2470000     286.4805   -81.497497    368.37455    33368          432 
 2471000    301.75893   -88.715583    394.92829    33376          440 
 2472000    314.47021   -85.105495    424.79119    33390          454 
 2473000    285.30878   -81.170734    381.41121    33385          449 
 2474000    282.73916    -84.47035    372.89723    33379          443 
 2475000     296.2423   -68.808688    383.70353    33371          435 
 2476000    275.33439   -76.910147    375.18477    33393          457 
 2477000    312.26373   -72.678462    408.33655    33375          439 
 2478000    284.43596   -79.322106    367.98483    33370          434 
 2479000    291.81645    -83.71833     408.6424    33406          470 
 2480000     300.3199   -85.986923    444.05948    33433          497 
 2481000    282.59837   -83.726158    378.63395    33386          450 
 2482000    279.09118   -76.118396    364.84388    33375          439 
 2483000     277.8195   -75.843007    331.91727    33336          400 
 2484000    306.64633   -78.245708    423.45583    33400          464 
 2485000    320.18846   -85.110218     416.8562    33372          436 
 2486000    288.20634   -80.565275    362.20482    33358          422 
 2487000    278.39292   -78.225352    358.89023    33368          432 
 2488000    317.06182   -87.405028    413.80016    33374          438 
 2489000    298.33582   -79.270755    380.28351    33364          428 
 2490000    280.62796   -78.820574    370.00583    33378          442 
 2491000    283.28043    -79.38563    397.52681    33406          470 
 2492000    297.67224   -75.074829    376.66808    33360          424 
 2493000    291.37484   -65.322647    366.49411    33358          422 
 2494000    287.60226   -56.582281    356.70759    33353          417 
 2495000    306.53229   -73.843122    373.96489    33346          410 
 2496000    292.22068   -78.294471    355.86156    33345          409 
 2497000    284.35128     -84.2173    355.33588    33356          420 
 2498000    279.99502   -79.028158    354.32206    33361          425 
 2499000    290.37441   -91.014222    381.13231    33375          439 
 2500000    290.60401   -79.360756    425.28517    33427          491 
 2501000    303.52844   -80.495696    404.38177    33383          447 
 2502000    287.18243   -81.711646    364.94541    33363          427 
 2503000    289.43148   -80.694859    396.79319    33396          460 
 2504000    295.38636   -73.684968    370.21075    33357          421 
 2505000    289.44266   -67.331617    395.07792    33394          458 
 2506000    278.11852   -74.500391    392.19694    33409          473 
 2507000    292.79124   -76.436476    384.73576    33376          440 
 2508000    269.69988   -76.150698     357.0883    33381          445 
 2509000    286.69925   -78.342889    399.61577    33404          468 
 2510000    286.31019    -74.52853    383.33225    33386          450 
 2511000    282.50711    -77.47425    379.53004    33387          451 
 2512000    313.23137   -70.234301    398.38135    33363          427 
 2513000    283.15332   -73.830432    369.57312    33373          437 
 2514000    284.98835   -82.993759    372.30634    33374          438 
 2515000    320.05444   -73.735485    422.74006    33379          443 
 2516000    291.27416   -65.507256    356.12156    33345          409 
 2517000    283.73057   -77.888804    361.79992    33364          428 
 2518000    281.21886   -80.990415    388.23272    33399          463 
 2519000    295.93756   -81.612879    388.23432    33377          441 
 2520000    295.76452   -81.466764    362.57126    33348          412 
 2521000    287.16045   -99.201484    377.60257    33377          441 
 2522000    294.99396   -98.652102    412.58434    33406          470 
 2523000    284.70432   -91.548011     392.4501    33399          463 
 2524000     276.2431   -89.492782    373.92335    33391          455 
 2525000      303.934   -90.244138     406.9708    33386          450 
 2526000    288.86522   -87.621885    386.69356    33386          450 
 2527000    278.77558   -82.649148    352.48414    33360          424 
 2528000    290.50457   -79.459255    384.43072    33380          444 
 2529000    285.28983   -86.808402    406.83098    33415          479 
 2530000    274.11778    -86.45474    381.76047    33403          467 
 2531000    296.77615   -70.546948    380.43679    33366          430 
 2532000    291.55374   -79.202556    368.66825    33360          424 
 2533000    297.62198   -77.033397    402.01618    33389          453 
 2534000    288.35722    -88.60586    369.21681    33365          429 
 2535000     278.5123   -91.865596    340.32219    33345          409 
 2536000     287.8776     -88.8862    366.94268    33364          428 
 2537000    314.52594   -85.967661    436.41831    33402          466 
 2538000    292.81877   -88.554051    378.93178    33370          434 
 2539000    307.13212   -80.573589     428.2942    33403          467 
 2540000    290.78677   -79.283877    384.78418    33380          444 
 2541000    288.04263   -83.905563    402.10781    33405          469 
 2542000    299.97935   -77.671674    399.82738    33384          448 
 2543000    289.91111   -72.878743    397.49768    33395          459 
 2544000    289.23514   -80.036148    387.82191    33386          450 
 2545000     315.0855   -69.011994    370.79478    33331          395 
 2546000    295.80828   -73.385691    380.01348    33367          431 
 2547000    307.49292   -76.945441    389.16698    33361          425 
 2548000    304.83023   -75.105604    389.93065    33366          430 
 2549000    288.59082    -76.74583    390.86954    33390          454 
 2550000    273.75851   -90.690756     392.3757    33417          481 
 2551000    290.74245   -89.117943    410.35447    33409          473 
 2552000     298.3748   -89.114223    403.92059    33388          452 
 2553000    278.15755   -93.486875    404.26347    33424          488 
 2554000    276.12356   -84.052241    391.11521    33411          475 
 2555000    288.40112   -88.432234     401.8337    33404          468 
 2556000    283.64878   -85.471886    382.82206    33388          452 
 2557000    315.09864   -97.590303    416.10766    33380          444 
 2558000    309.84806   -85.888581    394.17787    33363          427 
 2559000    304.87747   -87.486429    423.30019    33400          464 
 2560000    264.44481   -82.554127    350.37758    33381          445 
 2561000    292.76834   -91.535943    406.34843    33401          465 
 2562000    298.01848   -81.319122    401.07633    33388          452 
 2563000    275.01794   -81.370995    384.41209    33405          469 
 2564000    310.53304   -76.419595    402.30216    33371          435 
 2565000    293.96646    -74.93806    418.39318    33414          478 
 2566000    295.29314   -76.622886    380.28303    33367          431 
 2567000    297.61329    -76.26512    401.08059    33388          452 
 2568000    305.40569   -77.898086     408.5373    33382          446 
 2569000    305.07195   -67.109924    361.36552    33334          398 
 2570000    303.01964   -72.374791    384.02558    33362          426 
 2571000    267.99087   -74.634099    337.99164    33359          423 
 2572000    261.01645   -77.485493    311.37575    33337          401 
 2573000    291.35057   -84.898938    370.44651    33361          425 
 2574000    264.39981   -81.040628    342.68861    33371          435 
 2575000    285.66624   -84.510575    404.02733    33411          475 
 2576000      300.527    -85.00458    407.60384    33392          456 
 2577000    293.92517   -75.898497     384.0634    33373          437 
 2578000    307.57975     -88.6463    414.58762    33389          453 
 2579000    299.24991   -94.460505    409.75209    33396          460 
 2580000    294.94369   -94.045108    393.63893    33383          447 
 2581000    260.49853   -79.267003    337.14691    33371          435 
 2582000    305.18262   -87.889986    412.02803    33389          453 
 2583000    282.43952   -89.483808    366.08149    33371          435 
 2584000    296.20453   -83.401732    380.52378    33367          431 
 2585000    286.61378    -103.3378     401.1253    33406          470 
 2586000    302.51476   -93.366739    406.77672    33387          451 
 2587000    297.81082   -92.062668    385.56209    33371          435 
 2588000    307.63526   -93.730056    422.53749    33397          461 
 2589000    286.66652    -100.4622     404.0527    33409          473 
 2590000    299.34903   -103.33483    409.04061    33393          457 
 2591000    307.34719   -100.18074    427.70074    33402          466 
 2592000    276.64367   -107.46532    390.07881    33409          473 
 2593000    285.81075   -102.99064     431.8177    33443          507 
 2594000    318.44323   -98.164974     449.9014    33410          474 
 2595000    292.41586    -89.57904    408.37251    33405          469 
 2596000     299.8122   -101.37638    434.66248    33423          487 
 2597000    304.71762     -102.038    418.74945    33397          461 
 2598000    303.21581   -89.004739    398.38046    33375          439 
 2599000     289.3682   -88.657856    377.13183    33373          437 
 2600000    324.60752   -88.149876     428.1143    33379          443 
 2601000    287.72669   -83.862067     378.1617    33377          441 
 2602000    271.97671   -90.702792    334.41201    33345          409 
 2603000    300.57622   -87.803218    416.01514    33400          464 
 2604000    287.01883   -83.269129    373.21382    33373          437 
 2605000    304.44342   -79.653399    399.09175    33375          439 
 2606000     293.6317    -89.54932    428.72069    33426          490 
 2607000    317.96826   -79.253484    437.20647    33398          462 
 2608000    280.70627    -69.53878    339.04405    33342          406 
 2609000    322.70641   -68.314096     395.4491    33348          412 
 2610000    294.48137   -72.389866    384.22904    33374          438 
 2611000    298.85656   -76.491587    397.59216    33383          447 
 2612000    288.07039   -77.775152    401.71617    33404          468 
 2613000    300.44722    -92.17194    396.79918    33378          442 
 2614000    289.22423   -73.427267    388.81912    33387          451 
 2615000    305.60378   -76.457175    401.02356    33377          441 
 2616000    296.80035   -84.249277    392.43194    33379          443 
 2617000    290.74089   -81.749925    403.74104    33400          464 
 2618000    294.55112   -80.939432    397.51207    33389          453 
 2619000    288.77716   -81.097348     418.4531    33422          486 
 2620000    289.82073   -84.093846    398.04423    33396          460 
 2621000    297.06928   -85.444211    411.98758    33401          465 
 2622000    291.23396   -86.453853    389.38461    33383          447 
 2623000    285.13032   -89.653109    384.09645    33387          451 
 2624000    286.87491   -79.145256     383.1821    33383          447 
 2625000    294.71221   -79.585516    355.58966    33340          404 
 2626000    290.71221   -84.968456    388.34444    33384          448 
 2627000    292.22424   -86.009807     382.7321    33376          440 
 2628000    296.67517   -74.244235    394.34911    33382          446 
 2629000    299.49001   -73.618174    390.77544    33374          438 
 2630000    310.66389    -80.00894    400.50136    33369          433 
 2631000    302.79864   -77.116357    375.03922    33352          416 
 2632000    296.00112   -76.837962    377.11627    33364          428 
 2633000    281.92032   -79.063903     339.5115    33340          404 
 2634000    290.93954   -76.539107    365.67717    33358          422 
 2635000    293.77541   -77.092926    402.53066    33396          460 
 2636000    293.35519   -83.860643    407.84575    33403          467 
 2637000    275.93834   -80.475719    366.72706    33382          446 
 2638000    277.00507   -74.162943    369.34533    33382          446 
 2639000    303.85723   -76.122189    376.23889    33352          416 
 2640000    277.71691    -66.76644    347.88689    33356          420 
 2641000    297.04536   -69.374146    359.05402    33342          406 
 2642000    303.26322   -79.490843    402.71069    33381          445 
 2643000    287.34305   -67.443736    359.90512    33355          419 
 2644000     296.2504   -70.821367    355.97643    33339          403 
 2645000    288.92255   -72.817333     349.9314    33342          406 
 2646000     284.1645   -80.314105    367.76415    33371          435 
 2647000    282.62008   -74.593702    367.77873    33372          436 
 2648000     284.2785   -77.982069    345.29264    33344          408 
 2649000    296.51798   -80.860958    387.06446    33374          438 
 2650000    294.08666   -79.868443    383.59916    33373          437 
 2651000    289.45126   -75.250336    389.99481    33389          453 
 2652000    297.11281   -76.910273    408.00471    33397          461 
 2653000    311.13235   -79.067049    426.75434    33397          461 
 2654000    285.60458   -84.141001    381.93381    33385          449 
 2655000      305.486   -78.879127     373.6143    33347          411 
 2656000    300.94338   -82.335266    376.44561    33355          419 
 2657000    287.96981   -78.108428    375.02835    33373          437 
 2658000    295.85412    -80.59742    405.83166    33397          461 
 2659000    289.75885   -77.411209    394.12611    33390          454 
 2660000    283.45241   -65.205868    341.73977    33339          403 
 2661000    301.75553   -68.003092    343.29134    33318          382 
 2662000     294.7496   -62.779284    363.47912    33349          413 
 2663000    305.63637   -66.258671    401.87428    33376          440 
 2664000    274.02526   -76.547404    372.82914    33392          456 
 2665000    295.51084    -75.88412    402.98903    33394          458 
 2666000    282.30887   -74.882818    357.94011    33362          426 
 2667000    315.24146    -65.89947    408.04375    33371          435 
 2668000    284.62787   -76.239191    388.73892    33395          459 
 2669000    277.23771   -69.659678    373.95072    33389          453 
 2670000    284.02486   -74.914907    382.98719    33388          452 
 2671000    279.37238   -66.493385    346.87503    33352          416 
 2672000    288.03614   -69.582399    374.97952    33373          437 
 2673000    292.19375   -70.295065    366.96962    33357          421 
 2674000    284.74583   -67.063374    362.79031    33364          428 
 2675000    297.65966   -74.977989    395.52184    33382          446 
 2676000    310.83231   -64.461325      412.705    33382          446 
 2677000    283.29049   -68.946646      370.759    33376          440 
 2678000    301.17265   -66.408695    390.18381    33370          434 
 2679000    282.22024   -73.756689    355.46825    33359          423 
 2680000    288.61564   -69.236496    365.33242    33361          425 
 2681000    307.01065   -63.527607    380.71229    33352          416 
 2682000    294.78224   -67.688467    368.64958    33356          420 
 2683000    310.11778   -74.289344    399.23997    33368          432 
 2684000    276.84115   -66.158077    355.48332    33367          431 
 2685000    291.72165    -71.40651    374.51287    33367          431 
 2686000    293.81238   -70.211303    377.82598    33368          432 
 2687000    289.33054   -75.017242    380.99221    33378          442 
 2688000    291.91563   -83.888601    397.69603    33393          457 
 2689000    305.28677   -83.896651    407.58852    33384          448 
 2690000    283.16139   -73.726154    391.28936    33399          463 
 2691000    292.42787   -79.445737    386.11962    33379          443 
 2692000    296.50767   -67.327796    382.08529    33367          431 
 2693000    303.46424   -74.061825    390.37482    33368          432 
 2694000     282.7229   -68.227317     394.5218    33404          468 
 2695000    300.93478   -68.214253    387.54543    33369          433 
 2696000    274.03297   -64.359291    355.58451    33370          434 
 2697000    288.57175   -67.955737    353.69639    33348          412 
 2698000    279.51302   -64.614384    340.22901    33344          408 
 2699000    300.08861   -72.162069    395.13791    33378          442 
 2700000    314.79291   -72.968478    401.03741    33364          428 
 2701000    265.93927   -72.355358     336.8386    33361          425 
 2702000    280.23978   -67.581729    342.38139    33344          408 
 2703000    291.41394   -74.058178    372.85368    33362          426 
 2704000    312.50022   -63.620193    405.35561    33370          434 
 2705000    285.07326   -67.703335    380.43512    33382          446 
 2706000    302.67361   -63.455829    387.80472    33366          430 
 2707000    268.15433   -62.343873     335.1989    33355          419 
 2708000    306.90578    -72.58931    435.75393    33413          477 
 2709000    296.56721   -76.921965    366.46226    33351          415 
 2710000    286.55977   -69.353443    368.38794    33367          431 
 2711000    296.88906   -71.334537    365.91452    33350          414 
 2712000    284.54791   -71.721338    353.97597    33353          417 
 2713000     299.7871   -70.944131    375.46831    33357          421 
 2714000    282.50729   -65.111753    358.39852    33361          425 
 2715000    279.10089   -61.754965    352.08924    33360          424 
 2716000    288.57143   -58.161355    356.35429    33351          415 
 2717000     317.2185   -55.448345     391.3156    33350          414 
 2718000    278.72663   -59.337337    330.21547    33334          398 
 2719000    279.00904   -59.316642    345.70932    33352          416 
 2720000    298.48822   -59.784377    360.91783    33341          405 
 2721000    282.57144   -60.291332     339.0542    33339          403 
 2722000    322.64334   -60.248268    394.54109    33347          411 
 2723000    310.50221   -59.095067    383.39298    33351          415 
 2724000    306.74369   -59.232157    349.21825    33318          382 
 2725000    294.96628   -55.104231    350.82784    33335          399 
 2726000    307.80229   -56.544578    355.23231    33324          388 
 2727000    293.16699   -62.035654    379.67954    33369          433 
 2728000    294.30087   -67.408023    399.37816    33392          456 
 2729000    304.14879   -68.198167    396.03438    33373          437 
 2730000    301.91075   -66.299291    400.66898    33381          445 
 2731000    276.48227   -67.821872    358.80979    33370          434 
 2732000    281.33235   -60.517786    366.81631    33374          438 
 2733000    300.39367   -63.834842    363.93774    33343          407 
 2734000     311.9025   -62.492441    391.17581    33357          421 
 2735000    307.74185   -64.565181    381.17222    33352          416 
 2736000    295.52596   -71.500333    377.23519    33364          428 
 2737000     300.8072    -77.06601    401.52176    33384          448 
 2738000    306.96669   -72.410004     419.3988    33394          458 
 2739000    284.07355   -76.805523    354.07998    33355          419 
 2740000    296.17488   -71.715899    372.21092    33358          422 
 2741000    286.80521    -69.40573     357.3946    33355          419 
 2742000    279.22587   -61.891197    339.32823    33343          407 
 2743000    281.05091   -65.002559     330.5016    33331          395 
 2744000    329.16423   -66.823997    393.01048    33336          400 
 2745000    309.62933   -68.117978    402.09823    33371          435 
 2746000    301.14778    -70.37466    391.49325    33373          437 
 2747000    285.48286   -64.938985    372.24717    33374          438 
 2748000    296.97181   -71.495918    410.36465    33400          464 
 2749000    304.44921   -67.781472    386.91566    33363          427 
 2750000    307.82557   -80.578374    385.04835    33356          420 
 2751000    306.11962   -76.615536    375.30875    33348          412 
 2752000     298.5269   -70.922021    341.46072    33320          384 
 2753000     313.6029   -70.661706    373.39245    33335          399 
 2754000    289.12965   -65.434236     394.3614    33391          455 
 2755000    292.30856   -76.148339    375.86933    33368          432 
 2756000    303.91119   -62.144018    384.17926    33361          425 
 2757000    279.35842    -71.78326    341.77545    33346          410 
 2758000    277.52751   -72.235233    363.54126    33376          440 
 2759000    290.10384   -85.722311    390.26924    33388          452 
 2760000    320.83669   -90.878275    433.10855    33389          453 
 2761000    314.39852   -89.176194    407.30585    33371          435 
 2762000    297.52351   -88.256442    394.12299    33380          444 
 2763000    296.22419    -85.57922    377.97138    33365          429 
 2764000    302.46195   -85.569949    392.04212    33371          435 
 2765000    313.58438   -85.909417    449.91149    33418          482 
 2766000    315.13441    -91.11353    429.13311    33393          457 
 2767000     294.6852    -80.94519    394.50116    33386          450 
 2768000    286.16547   -77.652133    355.08697    33353          417 
 2769000    285.12828   -77.042119    358.30829    33358          422 
 2770000    295.77053   -73.914525    353.06509    33336          400 
 2771000    303.93691   -82.846556    392.85926    33370          434 
 2772000    297.53977   -78.639267    375.36203    33359          423 
 2773000     299.0871   -70.846116    350.13405    33329          393 
 2774000    301.04093   -69.844739    379.80102    33358          422 
 2775000    299.46778   -73.517167    370.11185    33351          415 
 2776000     323.8112   -75.499668    445.07662    33398          462 
 2777000    298.74446   -76.935802    398.73923    33384          448 
 2778000    320.02868   -77.601972    421.95112    33379          443 
 2779000    296.97276    -78.93487    370.36497    33355          419 
 2780000    284.01498   -77.696299    386.92866    33393          457 
 2781000    285.39422   -75.708527    346.68162    33344          408 
 2782000    297.92274    -76.66349    385.04816    33370          434 
 2783000    291.57383   -74.566103    361.21095    33351          415 
 2784000     313.4488   -69.284052     389.0663    33350          414 
 2785000    312.22666   -73.427496    404.43036    33371          435 
 2786000    300.99671   -72.622992     389.5131    33371          435 
 2787000    289.60401   -78.666586    379.15542    33376          440 
 2788000    300.84466   -79.299976     414.2644    33397          461 
 2789000    299.73844   -84.275834    402.56031    33387          451 
 2790000    272.83426    -78.86525    379.94305    33404          468 
 2791000    280.68406   -80.334233    382.50661    33394          458 
 2792000    311.21324   -74.889298    404.12789    33371          435 
 2793000    301.81419   -75.263863    432.47343    33417          481 
 2794000    297.55091    -78.86045    402.77938    33391          455 
 2795000    279.91028   -82.589765    353.23149    33360          424 
 2796000    279.55306   -82.632122    361.71795    33371          435 
 2797000     288.6687   -77.696609    374.63808    33372          436 
 2798000    302.04377   -73.115737    389.86024    33369          433 
 2799000     274.1755   -73.628464    334.41043    33346          410 
 2800000    297.51251    -76.35161    372.99859    33356          420 
 2801000    301.45923   -86.280537    410.10149    33393          457 
 2802000    284.50315   -76.467974    398.30013    33406          470 
 2803000    307.47731   -66.826572    390.66828    33360          424 
 2804000    297.08162    -76.46107    391.52538    33378          442 
 2805000    291.27462   -82.415149    381.32107    33376          440 
 2806000    329.19538   -79.997027    448.23062    33392          456 
 2807000    297.77964   -72.112831    388.89331    33375          439 
 2808000    284.92979   -72.020657    363.87566    33364          428 
 2809000    283.56742   -71.142752    360.51491    33363          427 
 2810000    305.24931   -78.137698    401.69222    33376          440 
 2811000     295.0816   -72.549791    392.45167    33383          447 
 2812000    307.83044   -75.249172    412.51663    33386          450 
 2813000    264.20706   -79.861445    339.99023    33368          432 
 2814000    278.95528   -77.122592    344.07308    33350          414 
 2815000    287.26657    -78.15693    359.32745    33356          420 
 2816000    293.26452   -82.192448    391.76077    33385          449 
 2817000    307.80229    -86.73394    389.38178    33361          425 
 2818000    294.75131   -89.872503    388.37498    33378          442 
 2819000    293.60764   -86.672368    361.27195    33349          413 
 2820000    296.39747   -97.430311    397.68926    33387          451 
 2821000    289.48952   -95.609011    396.36068    33395          459 
 2822000    300.54267   -78.955168    384.91323    33366          430 
 2823000    277.05677   -91.988744    349.39916    33360          424 
 2824000    315.73462    -85.37599     434.8344    33397          461 
 2825000     297.1147   -84.466244    398.96043    33387          451 
 2826000    274.16168   -83.043509    373.04109    33392          456 
 2827000    301.18981   -87.840334    406.36466    33389          453 
 2828000    304.36216   -93.646519     420.2361    33400          464 
 2829000    310.21972   -85.759232    410.35262    33379          443 
 2830000    294.88278   -80.539065    411.89144    33403          467 
 2831000    276.57059   -87.456712    368.71453    33384          448 
 2832000    316.80434   -84.983803    450.60003    33413          477 
 2833000    304.67603   -90.947467    393.38745    33370          434 
 2834000    280.20433   -83.802137    368.81394    33378          442 
 2835000    296.02815   -98.862027    408.77409    33400          464 
 2836000    300.83694   -86.810735    399.29404    33382          446 
 2837000    306.28112   -83.831753    397.17374    33371          435 
 2838000    266.32143   -79.312708    352.36903    33380          444 
 2839000    284.86175   -80.074188    401.21139    33407          471 
 2840000    286.15275   -85.070459    393.19234    33395          459 
 2841000    293.31851   -87.677088    413.47486    33408          472 
 2842000    288.90492    -86.61005    394.71543    33394          458 
 2843000    289.92246   -81.383039    367.44271    33362          426 
 2844000    283.75272   -79.749894    393.67023    33398          462 
 2845000    315.85167   -87.221294    414.11221    33374          438 
 2846000    295.31224   -85.318463    392.32928    33381          445 
 2847000    299.06114   -83.900257    399.64121    33384          448 
 2848000    275.69801   -81.442833    364.78956    33380          444 
 2849000    302.23771   -83.302528    401.77243    33382          446 
 2850000    298.34935   -79.471229    407.92536    33395          459 
 2851000    283.02801   -78.497317    359.97951    33363          427 
 2852000     303.5056   -76.685776    389.02112    33365          429 
 2853000    280.74432   -79.118358    357.55658    33364          428 
 2854000    320.46665   -67.724366    370.60865    33324          388 
 2855000    279.89643   -74.260632    344.07454    33349          413 
 2856000    291.80072   -85.085441    390.88118    33386          450 
 2857000    306.78099   -75.089538    392.73537    33365          429 
 2858000    305.49133   -88.418077    390.44118    33364          428 
 2859000    289.18162   -77.050148    356.43772    33350          414 
 2860000    305.13627   -80.554888    389.12929    33364          428 
 2861000    296.47518   -87.117705    373.65913    33359          423 
 2862000    297.60067   -88.003528    357.60988    33337          401 
 2863000    293.59814   -87.613779    381.19237    33371          435 
 2864000    294.10163    -81.58151    407.92283    33402          466 
 2865000    279.09085   -84.539421    357.55825    33365          429 
 2866000    313.89549   -71.197106    378.12015    33341          405 
 2867000    300.61726   -81.261216    388.17847    33367          431 
 2868000    295.94481   -98.197036    410.18245    33400          464 
 2869000    303.21277   -98.471648    433.07888    33416          480 
 2870000    286.18358   -94.338329    399.37894    33405          469 
 2871000    296.04484   -99.439169    425.83299    33419          483 
 2872000    272.24557   -93.662798     404.8015    33435          499 
 2873000    300.18592   -93.333532     426.9671    33414          478 
 2874000    281.72322   -82.409489    353.22619    33357          421 
 2875000    300.08345   -85.825428    396.63253    33380          444 
 2876000    278.32559   -85.594774    368.28384    33380          444 
 2877000    308.27512   -93.227432    400.17505    33371          435 
 2878000    285.83791   -82.918834    374.47494    33376          440 
 2879000    278.60265   -84.987152    362.08728    33370          434 
 2880000    304.25742   -89.258701    383.65724    33359          423 
 2881000    298.08719   -91.681305    397.06009    33383          447 
 2882000    294.67468   -93.252105    391.44083    33381          445 
 2883000    288.66825   -92.329739    389.54712    33388          452 
 2884000    290.32021    -101.4813    409.71649    33410          474 
 2885000    299.20742   -99.152265    432.71411    33422          486 
 2886000    283.76307    -83.25827    362.75364    33365          429 
 2887000    286.99465   -89.848754    369.64544    33369          433 
 2888000    294.68637   -87.369256    383.28269    33371          435 
 2889000    300.59004   -93.218342    390.16036    33372          436 
 2890000     284.8516   -82.997269    376.43372    33379          443 
 2891000    307.91588   -81.070445    400.60158    33373          437 
 2892000    283.19781   -85.702852    371.16352    33376          440 
 2893000    289.88366   -75.633206     401.8648    33402          466 
 2894000    293.37579   -77.232301    406.30271    33399          463 
 2895000    295.74084   -78.548352    389.00118    33378          442 
 2896000    292.26442   -85.173397    379.65394    33371          435 
 2897000    301.00717   -75.405262     374.8157    33354          418 
 2898000    282.55535   -84.818812    368.79121    33374          438 
 2899000     292.8279   -85.933388    415.04193    33411          475 
 2900000    311.95021   -84.312476    407.24922    33372          436 
 2901000    295.98606   -72.889346    378.03078    33364          428 
 2902000    288.39697     -70.7429    357.90416    33352          416 
 2903000      290.502   -66.654615    411.37411    33410          474 
 2904000    297.76469   -66.290102    393.37086    33380          444 
 2905000     298.1607   -63.354557    361.66912    33342          406 
 2906000    291.60991   -66.440309    367.86062    33360          424 
 2907000    302.61896   -70.441894     363.4536    33339          403 
 2908000    295.12602   -67.679036    348.57347    33333          397 
 2909000    290.97316   -69.336731    369.52678    33361          425 
 2910000     289.8353   -74.504074    364.95183    33359          423 
 2911000    289.58113   -68.393964    351.36643    33342          406 
 2912000    296.36995   -69.141577     365.9648    33351          415 
 2913000    301.83507     -70.4589     385.3358    33365          429 
 2914000    315.44431   -74.565004    412.49546    33375          439 
 2915000    292.98323   -83.476879    382.33227    33374          438 
 2916000    280.71238   -71.455689    350.98948    33356          420 
 2917000    299.97748   -75.514968    401.66418    33385          449 
 2918000     304.7781   -65.393652    341.99197    33313          377 
 2919000    319.27698    -62.25972    371.53662    33327          391 
 2920000     282.0952   -63.337482    355.12573    33359          423 
 2921000    299.96224   -72.393037    385.18918    33367          431 
 2922000    287.03143   -66.737755      365.171    33362          426 
 2923000    277.04591   -72.398998    345.25474    33354          418 
 2924000    284.92261   -70.336909    372.19548    33374          438 
 2925000    306.32069   -74.179387    398.76896    33373          437 
 2926000    290.60627    -78.14394     399.8042    33398          462 
 2927000    299.68062   -81.562889    387.87133    33371          435 
 2928000    267.76471   -75.384187    321.15855    33339          403 
 2929000    292.32505   -74.426803    382.71355    33376          440 
 2930000    291.38727   -86.217867    411.26742    33409          473 
 2931000    288.94092    -69.33181    357.01578    33350          414 
 2932000     295.7111   -68.948493    364.12897    33350          414 
 2933000    274.23452   -75.496842    343.17816    33356          420 
 2934000    292.63557   -75.635157     374.3371    33366          430 
 2935000    312.34335   -77.144393      403.405    33370          434 
 2936000    305.72052   -81.291469    390.15593    33365          429 
 2937000    302.05774   -84.718909    398.14801    33379          443 
 2938000     291.8681   -80.582588    374.59249    33367          431 
 2939000    294.89164   -80.397675    389.70363    33379          443 
 2940000    296.48893   -80.786765    432.60257    33426          490 
 2941000    284.82302   -77.734502    379.13515    33382          446 
 2942000    293.83999   -78.578207    391.15516    33383          447 
 2943000    293.73996   -80.996586    373.94764    33363          427 
 2944000    277.37413   -77.583656    373.63222    33388          452 
 2945000    295.25757   -80.139054    384.70603    33372          436 
 2946000    311.48206   -88.543972    396.84195    33363          427 
 2947000    299.38959   -83.182492    393.28968    33377          441 
 2948000    269.81992   -80.597471    355.26824    33378          442 
 2949000    301.66988   -84.424915    418.27577    33402          466 
 2950000    294.07915   -72.305762    369.06452    33356          420 
 2951000    304.51239   -81.624957    380.47023    33355          419 
 2952000     305.9929   -85.221527    403.44103    33379          443 
 2953000    304.54647   -80.054906    404.57142    33382          446 
 2954000    291.73405   -83.749125    386.24697    33380          444 
 2955000    298.29654   -94.527154    392.67621    33378          442 
 2956000    297.36895   -92.593135    407.87267    33396          460 
 2957000    279.93002   -94.183752    406.83101    33424          488 
 2958000    276.70724   -99.531688    395.97891    33417          481 
 2959000    305.00225   -90.340764    439.12586    33419          483 
 2960000    291.75787   -91.918754    424.59908    33425          489 
 2961000    290.87711   -92.540242    397.58977    33395          459 
 2962000    311.83193   -92.048687    444.33155    33415          479 
 2963000    286.98723   -91.845078    368.98954    33367          431 
 2964000    294.93697   -88.609757    381.41562    33370          434 
 2965000    284.59048   -83.866273    372.48035    33376          440 
 2966000    300.26728   -90.104796    386.88175    33369          433 
 2967000    291.33777   -87.311244    386.43346    33379          443 
 2968000     280.2712    -90.49685    362.22211    33369          433 
 2969000    286.53053   -88.019833    374.99161    33375          439 
 2970000    326.13283   -80.715636    426.28267    33375          439 
 2971000    289.48446   -86.288546    379.25943    33376          440 
 2972000    282.36849   -78.248526    337.83292    33337          401 
 2973000    275.58945   -73.801908    345.66324    33357          421 
 2974000    290.00187   -84.333911    366.68068    33361          425 
 2975000    282.45974   -73.579156    384.60056    33392          456 
 2976000    280.81428   -77.155754     396.3555    33408          472 
 2977000    286.06725   -86.540422    384.61671    33386          450 
 2978000    275.27092   -88.573471    364.51689    33381          445 
 2979000    301.13845   -91.523298    403.36306    33386          450 
 2980000    314.55284    -85.08429    423.33867    33388          452 
 2981000     294.6397   -80.296219    404.86253    33397          461 
 2982000    296.78677    -84.57866    422.95823    33414          478 
 2983000    275.16096   -81.342167    366.28759    33382          446 
 2984000    290.95791   -76.593181    366.22679    33359          423 
 2985000    305.99406   -80.739808    413.26245    33388          452 
 2986000    294.73983   -72.389588    385.56378    33375          439 
 2987000    282.56658   -72.592295    368.32744    33374          438 
 2988000    277.60077   -65.055893    344.45066    33353          417 
 2989000    278.54465   -70.530264    357.93182    33366          430 
 2990000    292.89834   -71.616304    358.24076    33346          410 
 2991000      303.505   -79.556161     411.4058    33391          455 
 2992000    301.22302   -80.819232    393.76414    33375          439 
 2993000    297.52668   -72.419442    399.38434    33387          451 
 2994000    298.41403   -68.806761    392.34022    33378          442 
 2995000    320.49445   -71.244386    422.32398    33379          443 
 2996000     286.7138   -74.324392    348.09785    33343          407 
 2997000    283.05364   -63.940335     322.8744    33318          382 
 2998000    282.50392   -68.266356    364.79788    33369          433 
 2999000    295.03129    -71.72334    372.43234    33358          422 
 3000000    294.38018   -76.945681    376.39608    33365          429 
 3001000    310.18731    -67.64384    390.50538    33358          422 
 3002000    299.44768   -66.713259    361.97686    33342          406 
 3003000    306.19968   -71.203863    391.49967    33365          429 
 3004000    295.50915   -66.583515    371.22479    33358          422 
 3005000    281.15996   -60.637769    349.72681    33354          418 
 3006000    296.48475   -62.834555    388.22704    33376          440 
 3007000    276.05804   -69.920948    379.60913    33398          462 
 3008000    283.20897   -71.404463    369.85947    33375          439 
 3009000    302.75519   -66.704851    368.21911    33344          408 
 3010000    308.80343   -65.008114    362.43536    33330          394 
 3011000    303.71105   -62.263253     355.0333    33329          393 
 3012000    302.22382    -69.18231    363.14538    33340          404 
 3013000    282.85311   -65.040627     353.5774    33353          417 
 3014000    306.52367   -74.654289     404.8484    33379          443 
 3015000    285.07047   -75.876739    401.03198    33408          472 
 3016000    284.43588   -69.855425    334.95864    33332          396 
 3017000    282.41323   -61.889881     356.3757    33359          423 
 3018000    292.82154   -69.991111    366.07625    33356          420 
 3019000    282.48694   -64.258254    391.17991    33401          465 
 3020000    321.07899    -70.21787    436.95583    33393          457 
 3021000    304.80672   -64.612413    420.55368    33399          463 
 3022000     275.8973   -74.549354    385.25235    33405          469 
 3023000    324.81196   -72.541364    428.58434    33379          443 
 3024000    300.22165   -79.873351    407.65889    33392          456 
 3025000    287.35865   -84.236689     389.9497    33391          455 
 3026000    288.77576   -94.009675    384.69315    33383          447 
 3027000    288.40468   -90.814839    408.19064    33411          475 
 3028000    287.98921    -74.99649    353.15996    33348          412 
 3029000    286.94454   -74.035605    368.99938    33368          432 
 3030000    312.60304   -88.550992    386.92731    33351          415 
 3031000    299.37035   -89.942992    391.38914    33375          439 
 3032000    267.30564   -83.014163      353.291    33380          444 
 3033000    298.04598   -93.181266    402.81824    33389          453 
 3034000    306.31647    -91.95793    387.16768    33361          425 
 3035000     292.5292   -93.287427    395.57794    33388          452 
 3036000    302.50889   -89.057993    358.26912    33334          398 
 3037000    304.20096   -88.741809    374.85093    33350          414 
 3038000     273.3357   -77.276913    331.88073    33344          408 
 3039000     315.0053   -79.519036    383.14937    33345          409 
 3040000    272.16433    -76.55019    332.65895    33346          410 
 3041000    295.98581   -71.365545    382.11506    33369          433 
 3042000    306.04893   -76.612574    397.45953    33372          436 
 3043000    288.34653   -71.254797    383.09505    33382          446 
 3044000    294.95907   -68.176711    382.68853    33370          434 
 3045000    312.68086   -76.690582    398.64986    33364          428 
 3046000    277.58969   -79.031525    367.62155    33381          445 
 3047000    288.56873   -80.415766    370.23027    33367          431 
 3048000    292.87578   -80.314829    352.67384    33340          404 
 3049000    285.61935   -73.831107    366.49298    33366          430 
 3050000    284.63005    -72.10048    381.70829    33385          449 
 3051000    288.03067    -74.96536    396.74269    33398          462 
 3052000    297.85001   -71.194101    373.14713    33357          421 
 3053000    296.17032   -88.692136     413.5091    33405          469 
 3054000    299.76069   -86.606842    420.00172    33406          470 
 3055000     299.4511   -82.130405    403.38299    33388          452 
 3056000     293.6013   -71.321068    370.52115    33358          422 
 3057000    299.93455   -65.815212    365.95206    33345          409 
 3058000    308.08696   -72.751439    400.85747    33373          437 
 3059000    292.72316   -71.765599    358.74294    33348          412 
 3060000    275.26939   -74.238669    357.92993    33373          437 
 3061000    295.17672   -80.874713     366.6804    33353          417 
 3062000    275.89282   -78.446471      372.005    33385          449 
 3063000    285.25345   -65.708659    352.22782    33351          415 
 3064000    280.32733   -69.021718     373.9783    33384          448 
 3065000    282.69277   -82.462664    375.26957    33381          445 
 3066000    299.52469   -85.286989    385.19297    33368          432 
 3067000    299.15307   -88.380396    399.05507    33384          448 
 3068000    275.59365   -76.111832     349.6303    33362          426 
 3069000    302.00281   -78.666843     371.9503    33350          414 
 3070000    284.65056   -82.085424    378.72289    33382          446 
 3071000    283.29232   -83.847218    374.80448    33380          444 
 3072000    297.55972   -72.608179    397.54841    33385          449 
 3073000     291.1164   -82.572724    389.31572    33385          449 
 3074000    268.44698   -78.299026    358.01904    33384          448 
 3075000    296.26635   -72.651051     381.9224    33366          430 
 3076000    288.24588   -79.627109    388.63276    33389          453 
 3077000    300.91506    -77.48927     403.9717    33387          451 
 3078000     298.2412   -91.338283    379.01191    33363          427 
 3079000     296.4149    -94.53198    399.79008    33388          452 
 3080000    288.07394   -88.636085    354.89916    33350          414 
 3081000    288.88576   -84.304334    381.74107    33379          443 
 3082000    296.30361   -87.555951    389.85524    33378          442 
 3083000    295.09506   -77.273259    391.62786    33382          446 
 3084000    296.69442   -86.692393    399.79193    33387          451 
 3085000    285.73786   -81.104321     365.5901    33366          430 
 3086000    286.56061   -83.057275    375.28171    33376          440 
 3087000    291.83825   -83.152368    382.25331    33376          440 
 3088000    301.59517   -87.744945    403.08792    33385          449 
 3089000    282.73029   -81.379553    354.26466    33357          421 
 3090000    289.88756   -83.166807    363.18521    33357          421 
 3091000    300.83904   -82.126655    371.80456    33351          415 
 3092000     290.7903   -80.956336    336.16003    33323          387 
 3093000    287.87596   -69.075752    350.52249    33345          409 
 3094000    285.21998   -78.691037    359.54062    33357          421 
 3095000    277.58386   -76.944903    384.43636    33401          465 
 3096000     304.5789   -94.135028    423.39587    33403          467 
 3097000    301.76198   -84.731714    416.72326    33400          464 
 3098000    277.11487   -84.421821    369.57431    33384          448 
 3099000    292.36839   -82.730393    368.94032    33360          424 
 3100000    328.10607   -88.716897      461.825    33406          470 
 3101000    299.77302   -74.275446    372.16302    33353          417 
 3102000    301.17275   -77.372094    401.50134    33384          448 
 3103000    290.66648   -76.327375    385.09882    33381          445 
 3104000    304.83266   -82.218061    385.48351    33361          425 
 3105000    311.07848   -78.418246    375.93346    33342          406 
 3106000    273.54392    -77.83663    358.20932    33376          440 
 3107000    294.52388   -67.755138    381.25521    33370          434 
 3108000    290.98711   -72.905216    372.98493    33366          430 
 3109000    285.46788   -71.204812    356.54185    33355          419 
 3110000    292.80682    -78.38063    386.40051    33378          442 
 3111000    316.70057   -82.313546     430.0262    33392          456 
 3112000    297.86085    -80.24927    389.90849    33375          439 
 3113000    280.68858   -76.702392     351.8075    33357          421 
 3114000    287.58302    -74.71205    381.73573    33382          446 
 3115000    308.05922   -78.187438     428.4743    33402          466 
 3116000    310.03484   -68.734007    409.06025    33379          443 
 3117000    298.75679        -72.7    385.20801    33369          433 
 3118000    278.67035   -67.565199    374.72468    33387          451 
 3119000    271.65951   -75.054419    346.81103    33363          427 
 3120000    298.66823   -75.639029    400.61643    33386          450 
 3121000    297.10312   -71.097408    364.10138    33347          411 
 3122000    298.22023   -84.019583    372.37746    33355          419 
 3123000    294.84436   -62.391026    395.29412    33386          450 
 3124000    282.91777   -78.616054    375.87685    33382          446 
 3125000    304.62302   -78.561838    398.59773    33375          439 
 3126000    309.18369    -82.32495    402.82432    33374          438 
 3127000    290.16268   -82.235749    367.41481    33359          423 
 3128000    285.88496   -88.106899    379.20093    33380          444 
 3129000    295.03797   -79.628632    392.96067    33383          447 
 3130000    290.31291   -87.698682    371.04455    33365          429 
 3131000    284.15361   -96.639058    397.28014    33404          468 
 3132000    317.34177   -89.646789    396.84626    33355          419 
 3133000    286.35811   -88.634036    385.90953    33388          452 
 3134000    292.65716   -84.009616    386.07915    33379          443 
 3135000    287.30227     -96.4264    379.79026    33380          444 
 3136000    314.60229   -87.673577    403.35644    33367          431 
 3137000    292.17965   -88.279365    384.38954    33378          442 
 3138000    283.52452   -82.106606    345.79383    33345          409 
 3139000    272.36264    -72.98923     326.3872    33337          401 
 3140000      308.891   -71.511503    370.43794    33339          403 
 3141000    310.38631   -79.051491    393.21742    33360          424 
 3142000    290.12798   -74.151406     362.1248    33355          419 
 3143000    279.36773   -85.162721    372.44905    33383          447 
 3144000    287.26271   -82.200144    381.06499    33382          446 
 3145000    271.04313    -87.88296    379.77664    33406          470 
 3146000    294.51816   -80.770136    382.67183    33372          436 
 3147000    299.60264   -76.270417    376.62054    33358          422 
 3148000    276.58494   -76.351333    363.25966    33376          440 
 3149000    292.98441   -80.702816    391.89281    33384          448 
 3150000    309.56168   -75.040927    380.87962    33349          413 
 3151000    285.95389   -68.494368    358.52417    33357          421 
 3152000    301.75513   -62.898466    379.60627    33358          422 
 3153000    305.47131   -72.898325    380.78913    33353          417 
 3154000    302.47626   -71.037468    385.68554    33364          428 
 3155000    301.75653   -68.668535    382.48843    33362          426 
 3156000    290.00349   -78.127143    344.30874    33335          399 
 3157000     290.6948   -80.194565    396.16039    33393          457 
 3158000    297.16013   -79.387038    413.73143    33403          467 
 3159000    318.51126   -90.712412    432.21178    33392          456 
 3160000    291.71494   -96.206298    415.78764    33415          479 
 3161000    287.51522   -93.071785    395.20864    33397          461 
 3162000     275.5412   -96.516384    378.75779    33398          462 
 3163000    294.12395   -83.444827    403.85903    33396          460 
 3164000    299.60924   -77.295636    388.88941    33372          436 
 3165000    296.08701   -86.080504    392.03318    33381          445 
 3166000    270.91013    -84.63926    345.12027    33363          427 
 3167000    257.72652   -85.594397    332.27126    33369          433 
 3168000    285.92299   -85.463005    375.58646    33377          441 
 3169000    307.31522   -78.477558     392.2687    33364          428 
 3170000    299.74178   -70.838548    351.38597    33328          392 
 3171000    285.17427   -80.347841     390.7543    33396          460 
 3172000    285.22479   -85.570294    383.91691    33388          452 
 3173000    295.21977   -84.688615    391.30012    33380          444 
 3174000    296.09199   -87.277553    418.05729    33410          474 
 3175000    278.22641   -87.148583    398.51228    33417          481 
 3176000    290.21215   -89.977938    386.31733    33383          447 
 3177000    290.80027   -89.413871    395.40731    33392          456 
 3178000    293.13673   -90.884277    391.96544    33385          449 
 3179000    306.30835   -87.953491    399.27044    33374          438 
 3180000    290.00446   -79.934373    405.09423    33405          469 
 3181000    284.51129   -78.176367    399.46903    33408          472 
 3182000    295.14573   -80.260393    361.08915    33346          410 
 3183000    299.97802   -77.100762    374.68911    33355          419 
 3184000    287.66103    -74.49182    360.66966    33356          420 
 3185000    292.65513   -70.002151    372.23422    33363          427 
 3186000    294.90474   -72.638901    385.49797    33374          438 
 3187000    304.91703   -79.441708    417.18057    33395          459 
 3188000    294.32177    -76.46324    375.11756    33364          428 
 3189000    283.48508   -75.996026    361.06917    33364          428 
 3190000    284.59578   -69.316899    357.35738    33356          420 
 3191000    295.56017   -75.533958    411.83476    33402          466 
 3192000    281.88163   -74.155317    364.16247    33370          434 
 3193000    317.87997     -72.8179    436.49211    33397          461 
 3194000    291.18513   -74.268528    385.45788    33381          445 
 3195000    262.35523   -69.742298    326.57413    33353          417 
 3196000    290.37124   -82.431155    377.15751    33372          436 
 3197000    288.47182   -83.266574    357.93201    33352          416 
 3198000     278.1492   -74.976495     391.2652    33408          472 
 3199000    286.88345   -85.840575    388.56271    33391          455 
 3200000    303.69274    -90.69506    423.15031    33403          467 
 3201000    272.53961   -75.623325     347.0405    33363          427 
 3202000    302.57823   -78.675177    410.68725    33392          456 
 3203000    295.80777   -84.965186     378.8051    33365          429 
 3204000    288.32942   -86.009662    379.92716    33378          442 
 3205000    295.98683   -81.088942    359.63758    33343          407 
 3206000     293.0253   -78.291277    374.41797    33365          429 
 3207000    292.43031   -77.863799    358.35865    33348          412 
 3208000    283.90758   -72.932301    339.65263    33338          402 
 3209000    299.08591   -78.664285    378.55599    33360          424 
 3210000    306.62891   -76.813692    390.12158    33363          427 
 3211000    283.38718   -76.049554    351.86267    33352          416 
 3212000    314.36785   -71.127426    392.89316    33356          420 
 3213000    323.54339    -69.07794    416.01826    33368          432 
 3214000    282.26847   -78.228615    357.31614    33360          424 
 3215000    302.34959   -73.915616    387.91383    33367          431 
 3216000     294.4207    -77.79613    376.49219    33365          429 
 3217000    294.25349   -72.355384    411.92167    33405          469 
 3218000    286.83571    -66.04044    367.75983    33367          431 
 3219000    288.04443   -83.368029    376.99205    33376          440 
 3220000    281.16486   -85.382596     374.6667    33383          447 
 3221000    299.21384   -79.557169    394.26728    33378          442 
 3222000    290.55483   -74.841384      358.998    33348          412 
 3223000      275.268   -75.863362    380.77398    33400          464 
 3224000    297.83804   -86.029016    409.92699    33398          462 
 3225000    283.62464   -83.753424    387.54126    33395          459 
 3226000    289.21216   -97.940215    370.17715    33366          430 
 3227000    306.83328   -89.042044    396.38369    33369          433 
 3228000    294.31421   -81.313282    412.25695    33405          469 
 3229000    296.56265   -80.001637    390.11069    33378          442 
 3230000    293.62316   -92.900662     397.7385    33391          455 
 3231000    292.16259   -80.864141    372.14801    33364          428 
 3232000    309.38338   -78.927989    406.28693    33376          440 
 3233000    305.17492   -72.545443    379.58226    33352          416 
 3234000    297.41237   -83.368926    364.43549    33348          412 
 3235000    303.94438   -77.461298    393.57828    33371          435 
 3236000     291.2826   -77.715867    374.27634    33365          429 
 3237000    299.07521   -80.876072    420.29653    33405          469 
 3238000     288.2636   -80.831678    395.83655    33396          460 
 3239000    272.01905   -81.435478     386.0126    33412          476 
 3240000    285.72556   -93.124708    397.30026    33403          467 
 3241000    309.96806   -89.976691    416.73021    33388          452 
 3242000    304.45379   -88.563298    429.67008    33410          474 
 3243000    283.85263   -91.615439    386.65823    33391          455 
 3244000    296.07369   -92.110897    408.93068    33398          462 
 3245000     296.3703   -96.525341    418.33373    33410          474 
 3246000     289.7018   -88.510443    392.31828    33391          455 
 3247000    285.02565   -94.442798    379.70208    33381          445 
 3248000    306.93524   -100.45769    410.08102    33385          449 
 3249000     293.9391    -88.28538    387.04499    33378          442 
 3250000    294.48988   -91.022942     375.0727    33363          427 
 3251000    307.36058   -95.625417    408.72484    33383          447 
 3252000    286.31479   -100.79544    380.28476    33382          446 
 3253000    288.68353   -98.907337    438.68067    33443          507 
 3254000    300.99952   -95.694015    439.03146    33426          490 
 3255000    297.22741   -86.280497    409.62034    33399          463 
 3256000    275.55079   -87.051719    377.36576    33396          460 
 3257000    295.19964   -93.734891    409.38113    33401          465 
 3258000    295.25479     -87.6436    412.11357    33404          468 
 3259000    282.62419   -79.387242    388.23031    33397          461 
 3260000    319.80657   -77.528878     441.8678    33400          464 
 3261000    275.81145    -81.30665    366.62409    33381          445 
 3262000    321.69811   -74.949751    400.10259    33354          418 
 3263000     294.3465   -75.126502    387.82727    33378          442 
 3264000    276.87765   -75.766796     352.5936    33364          428 
 3265000    303.99471   -67.238225    409.24665    33388          452 
 3266000    297.06372   -82.084732    411.30156    33400          464 
 3267000    286.76337   -85.975579    386.31575    33387          451 
 3268000    298.74664   -94.285753    408.30223    33395          459 
 3269000    281.67466   -92.316265    392.35395    33403          467 
 3270000    304.44261   -89.977405    446.86972    33429          493 
 3271000    293.51866   -74.843048    383.32794    33375          439 
 3272000    293.27373    -66.29733    361.42328    33350          414 
 3273000     311.3168   -68.303598    359.41457    33324          388 
 3274000     298.7724   -66.102609    389.43659    33373          437 
 3275000    278.06197   -79.756171    374.09654    33387          451 
 3276000    284.84414   -88.487324     372.0978    33375          439 
 3277000    304.60006   -76.984399    425.50346    33404          468 
 3278000    288.47541   -85.184853    404.41875    33406          470 
 3279000    276.59897   -87.682105    386.03042    33405          469 
 3280000    309.38362   -90.397896    404.37425    33375          439 
 3281000    291.59882   -82.559508    379.18013    33373          437 
 3282000    315.47628   -82.455944    437.68259    33401          465 
 3283000    290.02562   -96.791813    398.14583    33397          461 
 3284000    298.95543   -88.860446    415.42821    33403          467 
 3285000    292.96685   -85.520019    424.47137    33423          487 
 3286000    288.91838   -90.435069    393.62657    33394          458 
 3287000    294.51781   -81.668295     410.0065    33404          468 
 3288000    313.03338   -82.646979    439.06194    33407          471 
 3289000    291.47225   -91.979227     403.7603    33399          463 
 3290000    294.94786    -91.99427    382.34764    33371          435 
 3291000    306.05351   -83.746847    405.60026    33380          444 
 3292000    296.11238   -83.953135    416.63799    33407          471 
 3293000    303.84002   -86.004098    390.62459    33368          432 
 3294000    273.13724   -83.641375    385.82078    33410          474 
 3295000    286.65566   -80.365502    379.47338    33378          442 
 3296000    298.06581   -75.745615    375.84454    33360          424 
 3297000    281.22048    -96.29971    350.80891    33355          419 
 3298000    289.45996   -91.085618    392.60857    33391          455 
 3299000    266.38434   -83.179973     332.8314    33356          420 
 3300000    287.95052   -85.431152     362.9679    33359          423 
 3301000    284.82613   -93.598176    387.45867    33393          457 
 3302000    280.99593   -81.420074    373.11055    33382          446 
 3303000     319.3435    -83.42466    437.34235    33395          459 
 3304000    305.13588   -86.567687    415.39089    33393          457 
 3305000    296.77106   -87.367251    399.56638    33388          452 
 3306000    287.55064   -82.379189    364.64678    33362          426 
 3307000    280.37413   -84.663805    349.32573    33354          418 
 3308000    289.05776   -71.557817    362.82689    33356          420 
 3309000    299.09159   -75.114402     382.5307    33364          428 
 3310000    287.85925   -85.187655    386.34288    33387          451 
 3311000    280.48588   -77.147612    384.21602    33396          460 
 3312000    285.98425   -83.864068     376.3753    33378          442 
 3313000    295.84286   -85.782162    386.39638    33375          439 
 3314000    283.74106   -80.943554    372.78719    33377          441 
 3315000    304.91258   -87.882347    408.37221    33385          449 
 3316000    307.49396   -85.988298    433.55575    33409          473 
 3317000    294.49842   -82.428905    400.78896    33393          457 
 3318000    281.17841   -87.321746    369.11142    33377          441 
 3319000    284.04324    -84.64439    377.60494    33381          445 
 3320000    312.37404   -80.977608    413.06498    33380          444 
 3321000    306.24141   -80.036803    434.35899    33411          475 
 3322000    295.51731   -71.564508    396.88866    33386          450 
 3323000    308.91169   -75.449823    413.07107    33383          447 
 3324000    280.77029   -62.522107    359.29246    33364          428 
 3325000    296.03054   -62.159331    367.83287    33353          417 
 3326000    321.80069   -65.400383     416.3763    33370          434 
 3327000    288.63908   -76.927498    370.87193    33368          432 
 3328000    271.81522   -79.645011    351.01934    33368          432 
 3329000    299.68353    -76.42873    386.02595    33367          431 
 3330000    284.80583   -77.225954     360.8268    33360          424 
 3331000    283.80458    -76.04319    377.59318    33381          445 
 3332000    284.71675   -70.825094    348.23807    33346          410 
 3333000    322.64116   -77.915567    430.07511    33384          448 
 3334000     311.2257   -71.155251     416.4063    33385          449 
 3335000    289.12004   -86.690023    352.00548    33344          408 
 3336000    315.92165   -78.381747    404.54784    33366          430 
 3337000     282.2205   -84.676828    375.88006    33381          445 
 3338000    294.78335   -85.481088    409.70437    33403          467 
 3339000    292.07213   -81.601314    362.59261    33353          417 
 3340000    287.06801   -85.728072    381.71625    33383          447 
 3341000    296.34512   -83.609691    384.63152    33371          435 
 3342000    289.70736   -80.137479    392.89375    33391          455 
 3343000    301.65314   -76.655753    380.76635    33360          424 
 3344000    296.36079   -78.355836    377.00589    33363          427 
 3345000    281.51574   -85.112523    362.43398    33368          432 
 3346000    279.91367   -84.142894    374.60722    33384          448 
 3347000    294.42393   -82.862074    399.57259    33392          456 
 3348000    279.42187   -77.059391    370.14756    33381          445 
 3349000    293.49153   -85.301863    384.25333    33376          440 
 3350000    280.19489   -79.840754    376.67975    33388          452 
 3351000    312.58496   -84.993275    437.01769    33406          470 
 3352000    285.77167   -81.248462    387.84078    33392          456 
 3353000    305.07271   -87.739876    444.30986    33425          489 
 3354000    310.02901   -101.39067    450.52409    33423          487 
 3355000    309.79706   -90.663575    453.31793    33427          491 
 3356000    295.89558   -89.795888     424.2915    33417          481 
 3357000    281.26749   -79.457996     375.7108    33385          449 
 3358000    293.00199   -87.365916    370.88111    33361          425 
 3359000    288.44487   -76.411661    382.96896    33382          446 
 3360000    305.77446   -75.134416    429.17486    33407          471 
 3361000    296.57635    -75.10666    384.80155    33372          436 
 3362000    296.70032    -70.29621    388.33713    33374          438 
 3363000    306.28005    -76.08692    362.39909    33332          396 
 3364000    309.61678   -74.668405    385.38145    33354          418 
 3365000     286.4696   -79.623966    367.96998    33367          431 
 3366000    301.85707   -67.722704    394.45918    33375          439 
 3367000    296.60421   -76.440392    391.49536    33379          443 
 3368000    306.40961   -77.998806    422.64882    33399          463 
 3369000    287.47749   -74.679637    352.17998    33347          411 
 3370000    306.10128   -69.715646    395.68431    33368          432 
 3371000    296.02548   -71.993236    369.54742    33355          419 
 3372000    295.21059   -80.961203    383.84572    33373          437 
 3373000    298.82595   -84.407373    402.42782    33388          452 
 3374000    292.65951   -74.020509     385.9583    33378          442 
 3375000    295.41084   -77.902833    369.48851    33356          420 
 3376000    304.57753   -79.635902    399.79442    33376          440 
 3377000    278.29277   -82.677936    363.13927    33373          437 
 3378000    285.60939   -82.950928    358.09996    33357          421 
 3379000    283.45009   -86.125655    401.40213    33410          474 
 3380000    280.08687   -85.832191     386.7082    33400          464 
 3381000    285.32214    -77.85858    354.46353    33353          417 
 3382000    295.27746    -87.60162    377.78315    33366          430 
 3383000    310.48064   -77.236523     367.5639    33334          398 
 3384000    287.58798   -84.602292    385.36976    33385          449 
 3385000    315.92181     -91.5815    441.13844    33404          468 
 3386000    309.85098   -87.126432    423.05591    33395          459 
 3387000    319.75122   -82.520415     443.9951    33402          466 
 3388000    296.09953   -82.702982     417.9716    33409          473 
 3389000    282.91211   -82.761868    358.03985    33361          425 
 3390000    290.09035   -80.010234    382.59869    33378          442 
 3391000    302.61581   -90.801858    411.53411    33392          456 
 3392000    273.96777   -93.464679    377.79333    33399          463 
 3393000    304.89521   -97.466038    407.34601    33384          448 
 3394000    293.30127   -82.622886    358.90465    33346          410 
 3395000    298.45919   -88.142434    400.42383    33387          451 
 3396000     303.1222   -88.458151     398.9219    33378          442 
 3397000    299.53434   -87.531227    404.88455    33389          453 
 3398000    317.17781   -83.378953    394.16984    33351          415 
 3399000     288.4858   -85.211713    378.38549    33376          440 
 3400000    279.41115   -84.416142    370.25406    33381          445 
 3401000     290.1631   -83.295604    383.46773    33380          444 
 3402000    293.33136   -83.811484    391.45539    33384          448 
 3403000    294.19515   -86.665042    398.08973    33390          454 
 3404000    280.30372   -89.721163    395.56079    33408          472 
 3405000    301.46777   -91.134918    423.72913    33408          472 
 3406000    287.10771   -87.058299    391.79695    33394          458 
 3407000    302.22577   -84.941797    407.94836    33389          453 
 3408000      280.379    -80.98605    364.06395    33372          436 
 3409000     282.8639   -75.268612    388.47643    33396          460 
 3410000    297.84776   -82.838465    401.61386    33387          451 
 3411000    275.42841   -75.579716    354.79223    33369          433 
 3412000    296.58082   -70.888774     380.7891    33367          431 
 3413000    293.09262   -63.226036    393.73711    33387          451 
 3414000    301.70454   -67.041148     407.6569    33390          454 
 3415000    300.02108   -76.342056    399.48557    33383          447 
 3416000    296.82769    -78.22357    395.92754    33383          447 
 3417000    274.55279   -74.195817    326.29251    33335          399 
 3418000    288.16694   -73.354652     371.4424    33369          433 
 3419000    322.59281   -79.635974    423.92653    33377          441 
 3420000    284.39188   -76.766086    364.47711    33366          430 
 3421000    301.52084   -82.058409    408.65319    33391          455 
 3422000    313.20526   -78.801336    398.16494    33361          425 
 3423000    287.83849   -74.092917    360.30816    33356          420 
 3424000    281.90141   -80.144333    385.78809    33395          459 
 3425000    292.46049   -79.058686     374.7857    33366          430 
 3426000    304.68895   -74.086902      398.383    33375          439 
 3427000    285.07027   -81.449299    395.35347    33397          461 
 3428000    296.74176   -76.049405    385.94369    33373          437 
 3429000    309.51496   -76.438633    409.09017    33379          443 
 3430000    304.21182   -77.318444     398.1332    33376          440 
 3431000    272.65861   -85.782319    350.74374    33367          431 
 3432000     283.8181   -84.226008    380.88849    33386          450 
 3433000    282.33482   -77.635469    375.48479    33383          447 
 3434000    313.53577   -84.923441    396.38712    33360          424 
 3435000    279.39365   -80.993962    392.03344    33406          470 
 3436000    294.92829   -80.590927    392.94114    33381          445 
 3437000    289.69849   -71.044075    408.21098    33409          473 
 3438000    292.95997   -76.668533    390.80951    33384          448 
 3439000    304.61049   -76.234206    371.48924    33345          409 
 3440000    295.70302   -71.690887    357.39308    33342          406 
 3441000     265.4072   -74.938177    339.14343    33365          429 
 3442000     277.9711   -70.213736    381.74343    33396          460 
 3443000    305.76438   -75.277477    387.83154    33362          426 
 3444000    296.96217   -68.003686    379.64106    33365          429 
 3445000    273.66815   -76.557794    356.61542    33374          438 
 3446000    312.13801   -76.354613    401.49775    33365          429 
 3447000    300.26205   -78.128013    438.48605    33426          490 
 3448000    328.12068   -70.010131    422.40734    33367          431 
 3449000    301.14057   -70.987374    386.09264    33366          430 
 3450000    278.66687   -71.068825    358.18925    33368          432 
 3451000      280.684   -66.905875    365.18773    33373          437 
 3452000    294.13774   -62.624874    373.47382    33360          424 
 3453000      273.997   -61.523588    339.11848    33352          416 
 3454000    308.28224   -57.099233    389.24445    33360          424 
 3455000    280.67034   -67.554126    357.24003    33362          426 
 3456000    301.49673   -66.522251    377.79285    33356          420 
 3457000    292.52706   -54.295629    364.42382    33354          418 
 3458000    294.92329   -56.741228    366.82591    33352          416 
 3459000    277.40735   -72.645431    347.47291    33357          421 
 3460000    304.30326    -67.73287    402.31545    33380          444 
 3461000    292.84348   -70.847793     352.8806    33340          404 
 3462000    288.12814   -68.292611    363.53889    33360          424 
 3463000    316.95691   -70.692421    400.88516    33361          425 
 3464000    290.08691   -69.043787    380.98634    33377          441 
 3465000    278.75422    -75.39475    348.87413    33356          420 
 3466000    315.15289   -73.886824    414.00841    33377          441 
 3467000    294.03259   -75.301554    386.40615    33376          440 
 3468000    297.62187   -74.525546    405.50467    33393          457 
 3469000    306.70344   -71.588691    394.13452    33368          432 
 3470000    267.53245   -68.876582    340.20771    33363          427 
 3471000    285.20458   -63.164515    369.17644    33370          434 
 3472000    308.43744   -77.312349    410.11385    33383          447 
 3473000     287.3864    -77.70719    404.12198    33408          472 
 3474000    291.58492   -72.666763    379.25309    33373          437 
 3475000    291.53091   -67.555895    412.20553    33411          475 
 3476000    296.64895   -70.307172    405.34551    33392          456 
 3477000    317.32624    -70.10171    411.99003    33372          436 
 3478000    302.03871   -74.386875    400.25474    33380          444 
 3479000    274.11781   -65.646684    357.68034    33374          438 
 3480000    305.25008   -69.759665     389.5089    33365          429 
 3481000    284.26153   -68.569085    368.14129    33371          435 
 3482000    291.47852   -70.663735    389.85959    33385          449 
 3483000    298.74261   -73.246758     409.5081    33396          460 
 3484000    290.07586   -69.252584    360.83473    33354          418 
 3485000    291.40985   -71.873131    359.83074    33351          415 
 3486000    324.16484   -72.843098    368.85844    33318          382 
 3487000    286.62214   -80.556201    365.94925    33364          428 
 3488000    295.40346   -75.656254    384.08747    33373          437 
 3489000    302.77217     -81.1753    400.94042    33381          445 
 3490000    308.98199   -80.895028    430.67095    33403          467 
 3491000     305.1088   -86.664579    446.78965    33428          492 
 3492000    302.36023   -87.117387    440.87446    33426          490 
 3493000    284.86792   -84.941382    419.18017    33429          493 
 3494000    287.25059   -78.155733    385.06211    33386          450 
 3495000    299.86286   -80.547333    395.26932    33379          443 
 3496000    289.10845    -68.76097    355.16582    33348          412 
 3497000     271.4937   -59.346175    317.05058    33327          391 
 3498000    282.59122    -63.67567    323.24723    33320          384 
 3499000    304.07769   -68.866344    393.48169    33371          435 
 3500000    281.68847    -77.52035    377.35307    33386          450 
 3501000     304.0731   -79.225993    407.17904    33386          450 
 3502000     294.6828   -72.672816    384.02781    33374          438 
 3503000    294.85225   -76.175343     367.4923    33355          419 
 3504000    283.40451   -74.377925    367.02449    33370          434 
 3505000    279.25971    -82.03066    369.51056    33379          443 
 3506000    292.41551   -80.122422    374.26253    33366          430 
 3507000    295.11725   -72.637419    377.82709    33366          430 
 3508000    287.88954   -67.495105    354.48605    33349          413 
 3509000    314.87987   -83.637415    421.73906    33385          449 
 3510000    285.25256     -79.6782    359.82041    33360          424 
 3511000    302.50641   -67.584709    403.63291    33384          448 
 3512000    276.09465   -79.509467    359.81183    33374          438 
 3513000    291.07608   -71.821079    422.68969    33423          487 
 3514000    299.07795   -77.007488    419.92054    33408          472 
 3515000    283.62435    -78.49956    363.21249    33366          430 
 3516000    283.97049   -85.310533    356.51221    33357          421 
 3517000    298.78223   -77.990862    377.26483    33359          423 
 3518000    290.74767    -77.49202    354.10069    33344          408 
 3519000    305.24031   -79.545874    386.50971    33360          424 
 3520000      300.613   -72.004945    393.06275    33375          439 
 3521000     286.5565   -78.486934    385.03018    33385          449 
 3522000    288.83834   -82.226209    402.72537    33404          468 
 3523000    277.88019   -82.235209     369.2906    33382          446 
 3524000    283.97509   -81.596185    376.01061    33381          445 
 3525000    302.34236   -81.608423    392.52317    33372          436 
 3526000    302.61591   -70.096528    392.67266    33372          436 
 3527000    297.30643    -69.21511    356.34771    33338          402 
 3528000    278.32621   -77.406415    374.22971    33387          451 
 3529000    292.97058   -70.316738    363.54634    33352          416 
 3530000    276.48089   -82.877583    339.09003    33347          411 
 3531000    284.36406   -77.725833     370.1273    33373          437 
 3532000    284.59757   -67.096099    346.17002    33343          407 
 3533000    287.54603   -77.578129    401.26729    33405          469 
 3534000    279.61063   -75.327585    366.43453    33376          440 
 3535000    300.31711   -75.775156    382.07487    33363          427 
 3536000    314.18233   -76.050151    382.23497    33345          409 
 3537000    280.16519   -70.756435    353.38989    33360          424 
 3538000    292.47325   -73.541087    378.46565    33369          433 
 3539000    275.99957   -84.803849     382.0337    33400          464 
 3540000    295.30078   -80.824092    369.89171    33357          421 
 3541000    300.53765   -71.869531    367.43068    33347          411 
 3542000    295.37445   -61.638661    386.88656    33376          440 
 3543000    311.21592   -66.686373    394.69099    33362          426 
 3544000    294.33775   -66.250232    377.84879    33366          430 
 3545000    283.15554   -75.561434    373.88623    33379          443 
 3546000    284.32285   -74.539499    387.82737    33394          458 
 3547000     280.6179   -73.440116    378.45969    33389          453 
 3548000    294.17251   -69.086598    397.49492    33390          454 
 3549000    292.49518   -70.235007    384.38899    33377          441 
 3550000    282.20756   -76.149096    390.38316    33401          465 
 3551000    274.05449   -70.354854    368.49058    33388          452 
 3552000    306.43543   -88.680912    419.14541    33394          458 
 3553000    302.94293   -78.445429    389.46727    33368          432 
 3554000    294.30184   -68.738453    396.42733    33387          451 
 3555000    274.95882   -74.891979    356.66722    33372          436 
 3556000    302.70132   -70.711623    392.77372    33371          435 
 3557000    302.23435   -61.115031    407.40639    33386          450 
 3558000     274.5327   -68.869367    381.78891    33403          467 
 3559000    283.83066   -73.104277    410.12252    33421          485 
 3560000    310.35587   -69.505111    441.18194    33413          477 
 3561000    279.40344   -85.590726    367.36502    33378          442 
 3562000    295.81924   -72.566247     405.0162    33393          457 
 3563000    297.12128   -70.491584    400.68872    33389          453 
 3564000    284.07478   -79.465394    360.38348    33362          426 
 3565000    281.57088   -79.630519    394.59248    33405          469 
 3566000    309.64419   -68.942918    415.21696    33386          450 
 3567000    291.78513   -71.860223    367.20744    33358          422 
 3568000    293.23321   -77.671566    390.71672    33383          447 
 3569000    292.17877   -74.298787    400.25778    33395          459 
 3570000    294.85319   -74.586667    397.79742    33386          450 
 3571000    310.80028   -86.282335    429.51538    33399          463 
 3572000    308.49567   -73.479569    447.24235    33423          487 
 3573000    285.18776   -66.336619     414.5844    33424          488 
 3574000    299.43871   -78.493568    410.72166    33396          460 
 3575000    285.17023   -71.022188    378.60307    33381          445 
 3576000    287.77944   -72.437499    371.85936    33369          433 
 3577000    308.82951    -77.60034    389.76866    33360          424 
 3578000    298.72025   -79.252325    346.44715    33326          390 
 3579000     281.7157   -77.423618    362.80228    33369          433 
 3580000    303.17401   -76.908916     398.2812    33377          441 
 3581000    303.21652   -73.030777    415.20946    33394          458 
 3582000    304.99185   -65.556966    401.69358    33378          442 
 3583000     292.6036   -71.621943     387.3285    33380          444 
 3584000    287.48683   -67.011811    354.95064    33350          414 
 3585000    285.07151   -60.836924    355.68367    33355          419 
 3586000    305.28709   -62.713588    391.62236    33366          430 
 3587000     300.6608   -65.806707      358.581    33336          400 
 3588000    281.67241   -62.985516    367.40731    33374          438 
 3589000    285.16455   -60.796663    332.75259    33327          391 
 3590000    294.48813   -61.142603    373.81416    33361          425 
 3591000    297.81134   -73.118041    366.13888    33349          413 
 3592000    302.67703   -70.193974    439.14003    33422          486 
 3593000    273.43699   -86.932042    402.20826    33430          494 
 3594000    286.15096   -82.114557    421.53001    33431          495 
 3595000    274.66245    -80.25955    386.04823    33408          472 
 3596000    293.74393   -85.948062    408.25389    33402          466 
 3597000    322.07573     -78.8199    430.01091    33384          448 
 3598000    288.57374   -75.689371    370.70402    33367          431 
 3599000    283.50972   -81.182144    396.02591    33405          469 
 3600000    284.62172   -78.360217     383.6839    33388          452 
 3601000     307.7659     -77.0757    410.07779    33382          446 
 3602000    292.52818   -83.715939    390.43397    33384          448 
 3603000    287.16335   -81.258344    367.73934    33366          430 
 3604000     277.3201   -79.095467    340.45657    33347          411 
 3605000    316.77089   -66.176137    430.11757    33391          455 
 3606000    282.28819   -68.985352    373.82787    33380          444 
 3607000    308.75398   -74.305328    410.94579    33382          446 
 3608000     296.8747   -63.165509     391.8928    33379          443 
 3609000    281.58008   -60.746412    379.63294    33389          453 
 3610000    290.50826   -68.077277    367.49691    33361          425 
 3611000    276.31401   -58.717128    356.01496    33368          432 
 3612000    284.13562   -66.436471    357.58363    33359          423 
 3613000    299.18382   -67.401187    379.52161    33362          426 
 3614000    296.85849   -74.206601    365.59729    33349          413 
 3615000    277.53299   -68.446921    355.48099    33363          427 
 3616000    302.24221   -66.704832    418.25972    33401          465 
 3617000    293.71058   -76.679327     392.7999    33384          448 
 3618000    291.21902   -70.055843    392.64989    33388          452 
 3619000    296.04587   -72.807562    386.95152    33373          437 
 3620000    267.97028   -69.616561    349.44797    33374          438 
 3621000    287.94148   -57.656995    357.10626    33352          416 
 3622000    294.10611   -71.587206    384.91562    33376          440 
 3623000    311.66332   -71.099417    406.91729    33375          439 
 3624000    278.21853   -81.692276    348.81026    33357          421 
 3625000    285.51882   -83.969432    391.61814    33397          461 
 3626000    296.75612   -78.507696    378.99577    33365          429 
 3627000    287.71279    -84.78443    360.89022    33357          421 
 3628000    288.69161   -80.789729    400.73074    33402          466 
 3629000    303.72137   -83.970875    446.85248    33429          493 
 3630000    289.16907   -87.597897    403.54459    33404          468 
 3631000    275.45922   -81.565881    376.83231    33395          459 
 3632000    305.62586   -91.219951    421.62635    33398          462 
 3633000     304.8669   -86.884773    393.59238    33370          434 
 3634000    281.75431   -76.131437    349.14884    33352          416 
 3635000    317.28394   -89.602711    416.32882    33376          440 
 3636000    310.19516   -78.150454     414.4457    33385          449 
 3637000    290.81213   -81.604258     396.5854    33394          458 
 3638000    279.98884   -78.124237    387.48072    33400          464 
 3639000    293.77757   -71.143391    373.34995    33363          427 
 3640000      304.926   -67.036557    399.26322    33374          438 
 3641000    301.73148   -70.378386    362.53077    33338          402 
 3642000    288.75852   -63.779239    370.90124    33366          430 
 3643000    300.41866   -55.959026    366.14409    33344          408 
 3644000    318.18406    -69.68444    386.18603    33344          408 
 3645000    304.96682   -63.730844    357.41214    33330          394 
 3646000    312.22201   -69.738137    407.90556    33375          439 
 3647000    290.66713   -69.111693    361.58964    33354          418 
 3648000     294.1882    -74.48368    362.49906    33350          414 
 3649000     300.6069   -69.347287     376.6062    33356          420 
 3650000    308.96614   -67.258491    369.71908    33337          401 
 3651000    284.56797   -65.873797    342.17474    33340          404 
 3652000    292.34791   -75.483484    368.81797    33360          424 
 3653000    284.32717   -58.024473    339.13151    33336          400 
 3654000    311.33615   -73.970494    410.53484    33379          443 
 3655000    298.61421   -79.678052    375.24528    33357          421 
 3656000    287.79532   -74.711031    372.12321    33369          433 
 3657000    309.36339   -73.018355    411.08294    33382          446 
 3658000    302.82542   -59.872628    397.32325    33376          440 
 3659000    294.31573   -71.578405    386.60721    33377          441 
 3660000    281.69902   -57.225651    361.34424    33366          430 
 3661000    291.76977   -66.761779    354.64569    33342          406 
 3662000    294.18703    -62.15464    360.22326    33346          410 
 3663000    301.14497   -58.026787    363.84938    33342          406 
 3664000    290.52043   -69.344678     360.7523    33353          417 
 3665000    309.11251   -70.541492    400.13875    33370          434 
 3666000     270.0133   -71.279896     346.4795    33367          431 
 3667000     292.7432   -70.683079    374.67901    33366          430 
 3668000    271.62321   -75.813264    352.84881    33372          436 
 3669000    309.31672   -76.522499    376.73868    33345          409 
 3670000    301.50231   -77.436973    356.46429    33333          397 
 3671000    285.60917     -75.6446    340.74729    33337          401 
 3672000    280.36095   -70.250218    353.69808    33360          424 
 3673000    317.42518   -78.661935    400.74107    33360          424 
 3674000      296.504     -80.9706    380.37461    33367          431 
 3675000    288.21416   -85.462217    395.48427    33397          461 
 3676000    287.36154   -76.795818    382.38319    33383          447 
 3677000    295.61419   -84.264529     412.3895    33404          468 
 3678000    302.44032   -81.051952    417.26624    33399          463 
 3679000    285.66682   -86.307934    374.05678    33376          440 
 3680000    296.67626    -73.79732    402.42359    33391          455 
 3681000     287.1365   -69.700895     402.7485    33406          470 
 3682000    285.03633   -69.521492    385.10204    33386          450 
 3683000    287.79014   -68.044277    356.15188    33352          416 
 3684000    266.88427   -64.285794    345.67723    33371          435 
 3685000    289.18304   -74.196649    373.61842    33369          433 
 3686000      305.127   -74.381713    400.21183    33376          440 
 3687000    292.96497   -69.840049    383.54431    33375          439 
 3688000    271.01545   -71.622534    355.39947    33376          440 
 3689000    289.35789   -71.251544    363.82982    33358          422 
 3690000    303.82666   -73.032756    380.72792    33356          420 
 3691000    284.14564   -78.209877    358.90375    33360          424 
 3692000    278.84908   -70.604407    352.46048    33360          424 
 3693000    292.04726   -70.668228    353.49328    33342          406 
 3694000    295.12386   -70.150796    369.02322    33356          420 
 3695000    298.17694   -74.989701    376.19089    33359          423 
 3696000    288.59735   -72.074149    384.77496    33384          448 
 3697000    283.57064   -71.851139    376.78661    33381          445 
 3698000    306.48982   -76.081129    408.22478    33383          447 
 3699000    280.86546   -68.947515    347.96457    33352          416 
 3700000    294.12545   -71.407375    372.85324    33362          426 
 3701000    265.93159   -68.514392    354.19221    33382          446 
 3702000     298.9677   -69.391872    392.41737    33372          436 
 3703000    303.13871   -71.594553    375.72225    33352          416 
 3704000    303.76686   -70.644509    383.74225    33359          423 
 3705000    279.27073   -79.668882    374.69545    33386          450 
 3706000    267.11262    -71.10715    353.85069    33381          445 
 3707000    296.96645   -58.910751    371.59835    33356          420 
 3708000    298.75798   -86.066273    398.68737    33384          448 
 3709000    277.87608   -78.952339    391.92813    33410          474 
 3710000    297.52914   -74.082811    392.27934    33379          443 
 3711000     312.6499   -66.151233    415.02104    33381          445 
 3712000    286.28694   -75.065956    376.35791    33378          442 
 3713000    283.14313   -73.363857    357.99584    33361          425 
 3714000    306.90542    -76.43268    392.67159    33365          429 
 3715000    320.17562   -69.082189    417.64953    33374          438 
 3716000    293.12818   -76.989731    364.59719    33353          417 
 3717000    278.98411   -73.352022    353.46252    33362          426 
 3718000    295.23984   -83.807176    388.32899    33378          442 
 3719000    285.80169   -73.005839    377.45332    33379          443 
 3720000    280.49363   -74.715816    369.89889    33376          440 
 3721000    273.28163   -78.307606     352.4539    33369          433 
 3722000    288.51813   -76.028773    365.69147    33362          426 
 3723000    296.78675   -76.857065    362.04218    33346          410 
 3724000    302.67657   -83.654189    419.40491    33400          464 
 3725000    299.65805   -82.314865    398.83064    33382          446 
 3726000    313.38413   -88.569551    430.55994    33397          461 
 3727000    316.64047   -84.315818    460.16387    33424          488 
 3728000    287.39902   -85.515517    397.89942    33401          465 
 3729000    290.12669   -87.571352    389.83907    33387          451 
 3730000    301.60762   -94.393714    427.54458    33412          476 
 3731000    297.27752   -86.781931    406.13708    33395          459 
 3732000    296.44135    -77.36483    395.75291    33384          448 
 3733000    294.06904   -80.530074    387.12715    33377          441 
 3734000     284.4079   -70.641779    352.72801    33353          417 
 3735000    291.49914   -70.162405    382.32308    33375          439 
 3736000    284.87506   -69.882607     386.5445    33392          456 
 3737000    297.73538   -68.829772    382.93092    33368          432 
 3738000    278.71717   -71.288507    373.19434    33384          448 
 3739000    288.02304   -81.235963    382.81776    33381          445 
 3740000    318.77747   -71.810839    412.57319    33371          435 
 3741000    269.31749   -78.675438    374.91128    33403          467 
 3742000    291.06687   -83.760462    368.42564    33359          423 
 3743000    318.57963   -77.469927    421.82889    33381          445 
 3744000    269.90826   -82.525409    351.76923    33374          438 
 3745000    295.55185    -80.55903    410.99008    33403          467 
 3746000    306.34958   -86.160456    404.59866    33380          444 
 3747000    293.42921   -82.900213    385.00275    33377          441 
 3748000    290.29539   -78.109813    357.91759    33350          414 
 3749000    310.04448   -76.092005    408.75518    33379          443 
 3750000    310.08022   -83.276871    422.69766    33394          458 
 3751000    290.88259   -76.330341     400.1704    33398          462 
 3752000    306.31523   -61.804153    392.40901    33366          430 
 3753000    310.93174    -76.55051    412.08715    33381          445 
 3754000    297.58149    -70.86186    361.07947    33342          406 
 3755000    296.36132   -72.344754    367.80368    33353          417 
 3756000    292.13487   -65.037071    361.70361    33352          416 
 3757000    297.67144   -71.415633    380.89919    33366          430 
 3758000    284.87515   -73.494177    374.42582    33377          441 
 3759000    308.36006   -71.794211    416.52354    33388          452 
 3760000    265.29088   -78.903613    341.75232    33366          430 
 3761000    290.83875   -76.915968    390.84223    33387          451 
 3762000    299.31333   -77.768149    400.93965    33385          449 
 3763000    281.26159   -88.108577    375.89155    33385          449 
 3764000     299.6178   -85.745787    436.94257    33424          488 
 3765000    284.56413   -78.756668    371.88291    33375          439 
 3766000    295.34928   -84.642984    399.37185    33389          453 
 3767000    284.14516   -81.987059    368.73225    33371          435 
 3768000    301.98738   -78.588835    382.99126    33362          426 
 3769000     293.3103    -80.08066    396.26769    33389          453 
 3770000    280.81223   -77.571381    390.42763    33403          467 
 3771000    284.88305   -71.498146    369.77101    33371          435 
 3772000     306.3666   -74.726821     401.5639    33375          439 
 3773000     285.6269   -72.936614    353.47245    33352          416 
 3774000    285.17414   -72.654253    349.16954    33346          410 
 3775000    308.53776   -78.189864    393.28049    33364          428 
 3776000    286.97207   -86.616764    374.46302    33369          433 
 3777000    299.96603   -75.370085    374.36462    33352          416 
 3778000    290.26319   -81.742016    376.94614    33371          435 
 3779000    285.55873   -80.650132    365.64642    33366          430 
 3780000    287.21046   -79.525194    368.61209    33366          430 
 3781000    296.12321   -75.085455    395.91241    33385          449 
 3782000    292.04658   -72.220552    371.80391    33363          427 
 3783000    296.12265   -82.706794    383.33137    33371          435 
 3784000    284.31374   -81.771143    374.04362    33376          440 
 3785000    312.42716   -71.825628    399.36672    33363          427 
 3786000    286.11068   -75.035885    374.39551    33375          439 
 3787000     325.7092    -73.97146    427.61425    33377          441 
 3788000    282.77057   -68.884721    365.65952    33370          434 
 3789000    281.97785   -73.926831      366.959    33371          435 
 3790000    288.77544   -82.838605    396.73726    33397          461 
 3791000     268.7967     -85.5017     351.4588    33375          439 
 3792000    290.13214     -82.6867    405.19532    33405          469 
 3793000    278.79996   -96.050626    393.04317    33409          473 
 3794000    294.79662   -83.469552    392.28428    33383          447 
 3795000    296.76564   -91.392464    394.85969    33383          447 
 3796000    305.79612   -85.748864     418.4255    33395          459 
 3797000    284.75808   -74.766178    373.61778    33375          439 
 3798000    302.75785   -72.655264    379.63816    33357          421 
 3799000    285.44248   -67.125872    397.85002    33403          467 
 3800000    279.90707   -66.450399    393.00726    33406          470 
 3801000    308.08798   -71.432735    386.58899    33355          419 
 3802000    298.55671   -65.636061    372.46734    33355          419 
 3803000    275.02255   -73.397948    389.04113    33408          472 
 3804000    284.27536   -69.599741    397.60008    33406          470 
 3805000    301.38949   -76.541942     413.7148    33397          461 
 3806000    297.68874   -74.191967    383.74666    33368          432 
 3807000    281.72962   -61.635809    353.71944    33357          421 
 3808000    274.86393   -72.133457    374.62396    33394          458 
 3809000    303.47174   -69.677127    387.52355    33363          427 
 3810000    284.24379   -65.370063    348.29962    33347          411 
 3811000    285.81405   -72.166511    365.59731    33364          428 
 3812000    304.09056   -66.781716    391.26298    33368          432 
 3813000    293.63676   -72.269371    393.04638    33386          450 
 3814000    297.88283   -57.895453    358.25176    33340          404 
 3815000    291.93587   -69.128122    380.99988    33373          437 
 3816000    293.71707   -80.663634    422.57664    33419          483 
 3817000    286.87078   -69.726251    380.17762    33380          444 
 3818000    295.90656   -71.170706    375.04458    33361          425 
 3819000    295.99221   -73.208629    393.13916    33380          444 
 3820000    299.43742   -78.741813    414.86394    33401          465 
 3821000    294.92239   -75.679737    404.74819    33397          461 
 3822000    313.87623   -69.180247     415.1336    33380          444 
 3823000     299.3421   -68.248335    390.63284    33374          438 
 3824000    308.06914   -78.526251    374.59741    33344          408 
 3825000     293.1696   -78.390954    380.22236    33371          435 
 3826000    282.66052   -78.174656    370.67346    33376          440 
 3827000    270.92403   -83.104089    359.03376    33381          445 
 3828000    287.15553   -74.443535     396.8827    33400          464 
 3829000    291.50482   -79.454793    383.85106    33378          442 
 3830000    281.03371   -70.768191    376.02514    33384          448 
 3831000    279.97165   -66.070026    345.47004    33350          414 
 3832000    302.74302   -70.735583    392.62934    33369          433 
 3833000    297.46073   -71.047782    373.52206    33358          422 
 3834000    286.13549   -77.555001    392.86327    33397          461 
 3835000    285.07881    -73.32364    367.57501    33369          433 
 3836000    281.15938   -66.501868    356.57004    33362          426 
 3837000    311.58943   -73.046576    406.46544    33372          436 
 3838000    308.85764   -74.658084    378.99737    33348          412 
 3839000    284.15783   -77.502574     370.5676    33374          438 
 3840000    290.74508   -69.253405     387.9664    33384          448 
 3841000    298.71301   -69.615265    382.88787    33366          430 
 3842000    279.24132   -74.549531    372.25859    33383          447 
 3843000    293.12706   -75.863951     398.5159    33393          457 
 3844000     293.6564   -79.048486    369.71984    33359          423 
 3845000    293.36093   -82.573964    381.89805    33372          436 
 3846000    289.71595   -82.343561    371.29003    33366          430 
 3847000    289.24556   -92.650296    363.52144    33358          422 
 3848000    303.22625   -80.655304    396.85762    33376          440 
 3849000    302.61339    -91.01517    411.77816    33393          457 
 3850000    292.55769   -82.734248    410.61683    33407          471 
 3851000    281.92424   -87.956891     372.7859    33380          444 
 3852000    303.15746   -86.727664    390.24727    33368          432 
 3853000    277.00229   -73.032568    344.36353    33354          418 
 3854000    279.44695   -71.503864    362.91415    33372          436 
 3855000    306.43521   -81.556846    402.69363    33377          441 
 3856000    278.24044   -74.543387     346.7148    33355          419 
 3857000    284.67933   -84.385201    371.26869    33371          435 
 3858000    300.86949   -87.477303    411.90404    33396          460 
 3859000     290.1566   -87.903567    401.57919    33400          464 
 3860000    296.03005   -85.870638    408.20455    33399          463 
 3861000    312.31296   -77.598051    409.88126    33377          441 
 3862000    290.53816   -74.889146    383.66321    33379          443 
 3863000    288.77755   -79.000805    382.48157    33380          444 
 3864000    296.82987    -82.59217    394.94009    33383          447 
 3865000    307.59697   -90.384165    409.36695    33383          447 
 3866000     283.2104   -84.456842     397.0506    33406          470 
 3867000    275.52006   -75.709888    363.62913    33379          443 
 3868000    307.86253   -69.951381    369.49619    33339          403 
 3869000    306.57348   -69.832819    380.79635    33353          417 
 3870000     274.7965   -66.925879    360.26824    33374          438 
 3871000    302.24158   -80.613665    408.79752    33390          454 
 3872000     292.1795   -67.963436     392.9289    33388          452 
 3873000    299.91328   -68.536997    380.81532    33362          426 
 3874000    282.01946   -73.666275    349.27289    33351          415 
 3875000    278.83193   -82.610064     365.3037    33375          439 
 3876000    290.07888   -77.100932     354.0338    33346          410 
 3877000    316.73614    -63.53471    408.39193    33369          433 
 3878000    290.30817   -68.293481    371.72473    33364          428 
 3879000    280.30926   -78.483796     392.4598    33403          467 
 3880000    289.51416    -77.86401    388.11318    33386          450 
 3881000    299.32391   -77.115666    387.53642    33370          434 
 3882000     311.4318    -82.76542    411.09235    33379          443 
 3883000    299.85537   -75.483136    389.81202    33373          437 
 3884000    277.44141   -71.835446    348.71835    33357          421 
 3885000    281.66724   -75.201406    365.68605    33371          435 
 3886000    288.88661   -77.472601    373.48852    33370          434 
 3887000    304.85228    -80.18372    420.78029    33400          464 
 3888000    292.20004   -83.639658     378.6489    33371          435 
 3889000     280.7077   -86.158581    362.80629    33370          434 
 3890000    291.64455   -83.221126    416.84947    33416          480 
 3891000    284.42291   -82.531552    388.91406    33395          459 
 3892000    289.66543   -81.499442    377.05741    33373          437 
 3893000    283.03729    -80.33937    371.03001    33375          439 
 3894000    300.76979   -83.028947    386.92479    33368          432 
 3895000    301.89015   -86.040825    374.83349    33353          417 
 3896000    291.95875   -82.549533    362.13649    33352          416 
 3897000    287.75137   -73.130593    360.72249    33356          420 
 3898000    301.09336   -74.333741    402.92335    33385          449 
 3899000    296.98239   -72.784249    371.18798    33356          420 
 3900000    295.92485   -71.305452    377.71712    33357          421 
 3901000    284.20629    -65.57348     349.0887    33348          412 
 3902000    303.27219   -72.133178    377.49637    33353          417 
 3903000    311.98581   -67.574584    402.80767    33368          432 
 3904000    288.76925    -71.99576    378.26269    33376          440 
 3905000    280.56182   -78.667824    374.69341    33384          448 
 3906000    297.28137    -72.85899    404.31108    33393          457 
 3907000    290.99579   -74.645936    405.50149    33402          466 
 3908000    305.54114   -73.064115    414.60479    33390          454 
 3909000    307.02643   -71.893181    388.83246    33361          425 
 3910000     294.0954   -71.294241    367.87086    33356          420 
 3911000    284.27137   -61.788211    334.18398    33330          394 
 3912000    286.45819   -68.117348    376.91318    33377          441 
 3913000    303.54309   -63.935029    402.15688    33380          444 
 3914000    295.94906   -77.294919      366.317    33352          416 
 3915000    295.30661   -75.539448    385.96072    33374          438 
 3916000    278.94877   -77.318959    355.60964    33364          428 
 3917000    305.16927   -76.220004      377.482    33350          414 
 3918000    304.38342   -75.817615    375.82162    33350          414 
 3919000    290.24039    -78.19597    370.03416    33364          428 
 3920000    301.64466   -70.924451    394.32329    33374          438 
 3921000    291.05635   -62.043561    350.66932    33340          404 
 3922000     278.9576   -71.654231    334.57856    33339          403 
 3923000    311.02185   -75.927492    422.28971    33392          456 
 3924000    289.16561   -74.296333    375.96815    33373          437 
 3925000    292.52799   -78.817858    371.76752    33363          427 
 3926000    284.78288    -68.71985    360.19475    33361          425 
 3927000    289.41162   -71.364148    351.93204    33344          408 
 3928000    302.23762   -66.640778    366.71771    33343          407 
 3929000    277.87121   -75.504515    350.77806    33358          422 
 3930000    292.25016   -65.404025    408.07299    33404          468 
 3931000    279.63731   -78.304198    349.50705    33356          420 
 3932000    276.75602   -77.804208    371.26826    33386          450 
 3933000    297.83417   -83.062649    402.20991    33390          454 
 3934000    287.78592   -77.854659    367.27368    33365          429 
 3935000    288.60131   -77.202875    360.01784    33355          419 
 3936000     322.5289   -78.645739    418.40332    33372          436 
 3937000    286.96924   -75.133821     391.2572    33393          457 
 3938000    296.79899    -76.85835    430.42513    33422          486 
 3939000     281.2604   -79.930009    332.74651    33333          397 
 3940000     278.4287   -67.096642    351.44833    33360          424 
 3941000    294.34728   -77.659992    390.27249    33381          445 
 3942000    290.65583   -80.729422    393.41127    33390          454 
 3943000    291.86426   -86.312714    392.08662    33387          451 
 3944000    293.81362   -91.970361    388.02516    33378          442 
 3945000    297.19052   -87.306641    364.66907    33348          412 
 3946000    287.47048   -79.002111    358.45378    33355          419 
 3947000    297.25979   -76.494261    365.44145    33349          413 
 3948000    288.80607   -72.167799    346.41488    33338          402 
 3949000     295.2343   -79.997867     368.0285    33354          418 
 3950000    284.25893   -76.616947     379.7426    33384          448 
 3951000    288.62738     -79.1873    415.46513    33416          480 
 3952000    284.61187    -79.22886    370.48073    33373          437 
 3953000    290.36333    -81.73856    373.08535    33367          431 
 3954000     290.8715   -77.240566    362.94734    33355          419 
 3955000    287.67673   -80.272823    377.63426    33375          439 
 3956000    309.31371   -84.826854    374.10951    33342          406 
 3957000    275.81764   -83.529877    349.67272    33362          426 
 3958000    300.01689    -79.69807    378.58685    33358          422 
 3959000    282.95219   -71.190108    345.18424    33345          409 
 3960000    302.19628   -69.545088    362.20471    33339          403 
 3961000    305.49432   -72.850531    382.85256    33357          421 
 3962000    320.08223   -66.751166    395.89059    33351          415 
 3963000    280.53272   -65.660511      355.414    33362          426 
 3964000    291.56752   -67.256118    337.20735    33324          388 
 3965000    295.49563   -65.622111    353.15443    33337          401 
 3966000    303.65081   -78.196471    390.33785    33367          431 
 3967000    286.53345   -68.257294    360.53643    33357          421 
 3968000    279.10137   -71.476938    358.30071    33367          431 
 3969000    277.35486   -75.520081    375.56059    33390          454 
 3970000    305.84489    -81.96752    406.51958    33382          446 
 3971000    315.44726   -74.248523    417.69859    33380          444 
 3972000    292.85921   -78.778395    377.22722    33369          433 
 3973000    294.65619   -77.468894    362.76775    33349          413 
 3974000     277.6251   -78.440214    386.57903    33404          468 
 3975000    295.53813   -69.609462    397.09458    33386          450 
 3976000    299.23819   -66.473434    397.22518    33380          444 
 3977000    295.84668   -67.066143    385.50845    33373          437 
 3978000    314.89422   -64.949798    376.50639    33336          400 
 3979000    291.62926    -71.08495    361.90185    33353          417 
 3980000    290.46438   -68.439275    371.17525    33365          429 
 3981000    288.61966   -75.381066    368.97143    33363          427 
 3982000    289.33478   -72.838592    368.89752    33363          427 
 3983000    297.31624   -67.826223     397.4564    33378          442 
 3984000    312.62199   -69.946425    394.41367    33359          423 
 3985000    296.17757    -74.99849    378.25154    33364          428 
 3986000    275.64797   -80.395206    358.38033    33373          437 
 3987000    287.82419   -80.976121    378.95491    33378          442 
 3988000    290.63653   -74.704765     367.0948    33360          424 
 3989000    312.41205   -80.748979    404.60758    33371          435 
 3990000    281.44549    -83.38899    362.52723    33369          433 
 3991000    299.77061   -82.962865    414.16825    33399          463 
 3992000    288.62835   -87.877346    383.45018    33382          446 
 3993000    286.98262   -89.141324    381.67564    33382          446 
 3994000    284.80676   -80.165922    379.59191    33383          447 
 3995000    293.73924   -81.568287    380.17592    33371          435 
 3996000    308.56261   -81.370059    381.80092    33352          416 
 3997000    315.59746   -82.421951    426.63523    33390          454 
 3998000    284.72125   -81.821321    347.69414    33344          408 
 3999000    314.37735   -85.898662     420.2061    33384          448 
 4000000    294.88685   -79.486203    415.71005    33408          472 
Loop time of 30106.6 on 5 procs for 3000000 steps with 33408 atoms

Performance: 8.609 ns/day, 2.788 hours/ns, 99.646 timesteps/s
99.2% CPU use with 5 MPI tasks x no OpenMP threads

MPI task timing breakdown:
Section |  min time  |  avg time  |  max time  |%varavg| %total
---------------------------------------------------------------
Pair    | 736.59     | 1015.1     | 1199       | 537.8 |  3.37
Neigh   | 10640      | 13959      | 18287      |2743.0 | 46.36
Comm    | 2856.8     | 5545.6     | 8619.8     |3232.8 | 18.42
Output  | 1.0547     | 5.6246     | 6.7775     |  96.3 |  0.02
Modify  | 7359.6     | 9107.1     | 13814      |2526.1 | 30.25
Other   |            | 474.4      |            |       |  1.58

Nlocal:    6681.6 ave 6779 max 6552 min
Histogram: 1 0 1 0 0 0 0 1 1 1
Nghost:    17004.8 ave 17264 max 16621 min
Histogram: 1 0 0 0 0 1 1 0 1 1
Neighs:    14751.6 ave 17187 max 10856 min
Histogram: 1 0 0 0 0 1 0 1 1 1

Total # of neighbors = 73758
Ave neighs/atom = 2.20779
Neighbor list builds = 141546
Dangerous builds = 0

write_data        C199H148N2O9_gcmc4ns.data




Total wall time: 10:31:49
