LAMMPS (16 Mar 2018)
#

# variables available on command line

variable        T index 293.15      # K
variable        P index 15     # MPa
variable	    fe index 1.0948
variable        Patm equal ${P}/0.101325       # atm
variable        Patm equal 15/0.101325       

# global model settings

echo               both
units              real
dimension          3
atom_style         full
boundary           p p p

pair_style         lj/cut/coul/long  12.5
pair_modify        shift yes mix arithmetic
kspace_style       pppm 0.0001
bond_style         harmonic
angle_style        harmonic
read_data          C39_H2_1020watergcmc0.5ns.data
  orthogonal box = (0 0 -70) to (199.869 29.9804 70)
  5 by 1 by 2 MPI processor grid
  reading atoms ...
  37743 atoms
  reading velocities ...
  37743 velocities
  scanning bonds ...
  2 = max bonds/atom
  scanning angles ...
  1 = max angles/atom
  reading bonds ...
  2040 bonds
  reading angles ...
  1020 angles
  2 = max # of 1-2 neighbors
  1 = max # of 1-3 neighbors
  1 = max # of 1-4 neighbors
  2 = max # of special neighbors

# pair_coeff

pair_coeff 	1	1	0.105	3.851
pair_coeff 	2	2	0.06	3.5
pair_coeff 	3	3	0.06	3.5
pair_coeff 	4	4	0.105	3.851
pair_coeff 	5	5	0.069	3.66
pair_coeff 	6	6	0.105	3.851
pair_coeff 	7	7	0.105	3.851
pair_coeff 	8	8	0.06	3.5
pair_coeff 	9	9	0.06	3.5
pair_coeff 	10	10	0.105	3.851
pair_coeff 	11	11	0.105	3.851
pair_coeff 	12	12	0.274	4.035
pair_coeff 	13	13	0.044	2.886
pair_coeff 	14	14	0.044	2.886
pair_coeff 	15	15	0.044	2.886

pair_coeff      16 16 0.15535 3.166
pair_coeff      17 17 0.0000 0.0000

pair_coeff 	18	18    0.072896 2.958

# region
region            soall  block  EDGE EDGE EDGE EDGE -20  20 units box side in
region            subbulk  block  EDGE EDGE EDGE EDGE -16.25  16.25 units box side in

# define groups
molecule        h2omol H2O.txt
Read molecule h2omol:
  3 atoms with max type 2
  2 bonds with max type 1
  1 angles with max type 1
  0 dihedrals with max type 0
  0 impropers with max type 0
group              wall  type < 16
33616 atoms in group wall
group              h2o type 16 17
3060 atoms in group h2o
group		      ggcmc type 18
1067 atoms in group ggcmc

variable 	      type18 atom "type==18"
group 	            type18 dynamic ggcmc var type18
dynamic group type18 defined
variable          nH2 equal count(type18)
group             bH2 dynamic ggcmc region subbulk every 100
dynamic group bH2 defined
variable          nbH2 equal count(bH2)

compute           mtem type18 temp/com
compute           mwtem h2o temp/com

compute_modify    mtem dynamic/dof yes

neighbor          2.0 bin
neigh_modify      every 10 delay 0 check yes  exclude group wall wall

#MD settings

fix               1  wall nve/noforce  # move linear 0 0 0
fix               2 ggcmc gcmc 100 100 100 18 29494  ${T} 1 0.5 region soall pressure ${Patm} fugacity_coeff ${fe} group ggcmc
fix               2 ggcmc gcmc 100 100 100 18 29494  293.15 1 0.5 region soall pressure ${Patm} fugacity_coeff ${fe} group ggcmc
fix               2 ggcmc gcmc 100 100 100 18 29494  293.15 1 0.5 region soall pressure 148.038490007402 fugacity_coeff ${fe} group ggcmc
fix               2 ggcmc gcmc 100 100 100 18 29494  293.15 1 0.5 region soall pressure 148.038490007402 fugacity_coeff 1.0948 group ggcmc

fix               mynvt h2o nvt temp ${T} ${T} 100
fix               mynvt h2o nvt temp 293.15 ${T} 100
fix               mynvt h2o nvt temp 293.15 293.15 100
fix_modify        mynvt temp mwtem
WARNING: Temperature for fix modify is not for group all (../fix_nh.cpp:1404)

fix               wshake h2o shake 0.0001 50 0 b 1 a 1 mol h2omol
  0 = # of size 2 clusters
  0 = # of size 3 clusters
  0 = # of size 4 clusters
  1020 = # of frozen angles
fix               3 type18 nvt temp ${T}  ${T}  100
fix               3 type18 nvt temp 293.15  ${T}  100
fix               3 type18 nvt temp 293.15  293.15  100
fix_modify        3 temp mtem
WARNING: Temperature for fix modify is not for group all (../fix_nh.cpp:1404)

thermo            1000
thermo_style      custom step c_mtem c_mwtem ke atoms v_nH2  v_nbH2

run               200000
PPPM initialization ...
  using 12-bit tables for long-range coulomb (../kspace.cpp:321)
  G vector (1/distance) = 0.176183
  grid = 45 10 32
  stencil order = 5
  estimated absolute RMS force accuracy = 0.0330367
  estimated relative force accuracy = 9.9489e-05
  using double precision FFTs
  3d grid and FFT values/proc = 4410 1800
WARNING: Fix gcmc using full_energy option (../fix_gcmc.cpp:485)
0 atoms in group FixGCMC:gcmc_exclusion_group:2
WARNING: Neighbor exclusions used with KSpace solver may give inconsistent Coulombic energies (../neighbor.cpp:472)
Neighbor list info ...
  update every 10 steps, delay 0 steps, check yes
  max neighbors/atom: 2000, page size: 100000
  master list distance cutoff = 14.5
  ghost atom cutoff = 14.5
  binsize = 7.25, bins = 28 5 20
  1 neighbor lists, perpetual/occasional/extra = 1 0 0
  (1) pair lj/cut/coul/long, perpetual
      attributes: half, newton on
      pair build: half/bin/newton
      stencil: half/bin/3d/newton
      bin: standard
Per MPI rank memory allocation (min/avg/max) = 9.315 | 10.63 | 20.65 Mbytes
Step c_mtem c_mwtem KinEng Atoms v_nH2 v_nbH2 
       0    290.22632    291.39219    2695.6741    37743         1067          630 
    1000    296.60859    290.40631    2735.3655    37773         1097          653 
    2000    302.15463    289.76213    2731.6723    37753         1077          641 
    3000    291.42457    286.35875    2672.1158    37748         1072          619 
    4000    298.16488    292.38218    2712.4905    37728         1052          623 
    5000    304.38594    287.60805    2743.2969    37772         1096          647 
    6000    292.20424    298.19283    2761.3187    37764         1088          645 
    7000    290.86093    292.74723    2697.5248    37733         1057          633 
    8000    293.25087    284.39508    2654.3939    37734         1058          635 
    9000    311.85437    283.66993     2704.223    37731         1055          610 
   10000    295.24916    292.54848    2708.7625    37733         1057          617 
   11000    279.37534    296.38269    2684.5069    37736         1060          623 
   12000    277.57482    294.91317    2648.8403    37711         1035          632 
   13000    298.10469    283.06572    2630.3031    37697         1021          610 
   14000    297.08759    285.59726    2624.0326    37678         1002          592 
   15000    303.15724    294.97518    2714.8415    37696         1020          604 
   16000    284.90965    295.44949    2658.8852    37692         1016          578 
   17000    287.03519    303.25024    2713.8396    37694         1018          603 
   18000       299.36    294.77915    2713.4183    37708         1032          629 
   19000    299.01714    294.86482    2712.5455    37708         1032          633 
   20000    288.04052    288.74342    2609.8154    37671          995          593 
   21000    296.54373    294.19753    2678.7292    37682         1006          596 
   22000    299.45326    299.10935    2678.2303    37639          963          557 
   23000    302.47329      302.152    2724.4619    37660          984          578 
   24000    280.77497    291.61594    2586.7383    37649          973          562 
   25000    292.15385    292.96065    2636.6622    37656          980          589 
   26000    284.85922    290.61357    2619.0619    37678         1002          590 
   27000    300.25224    296.28235    2689.3354    37667          991          601 
   28000    309.96892    295.81873    2715.2104    37668          992          586 
   29000    292.06937    286.56349    2612.0678    37676         1000          607 
   30000    288.00848    285.72953    2593.0883    37673          997          608 
   31000    300.53336    293.76273    2693.3831    37687         1011          612 
   32000    303.24242     281.2668    2624.3033    37688         1012          586 
   33000    290.69556    290.25178    2628.1838    37672          996          596 
   34000    290.94469    293.30603    2666.0374    37694         1018          593 
   35000    304.07636    290.99341    2717.5529    37722         1046          614 
   36000    303.43544    298.16677    2762.8987    37726         1050          610 
   37000    292.11259    299.70833    2757.9041    37749         1073          624 
   38000    296.01246    303.53935     2813.541    37769         1093          647 
   39000    296.42447    298.00693    2762.2458    37751         1075          634 
   40000    286.84189    290.83072     2671.021    37732         1056          615 
   41000    296.97827    287.16103    2666.3167    37715         1039          603 
   42000     290.2401    292.44745    2702.2532    37744         1068          626 
   43000    296.26188    280.97341    2646.4589    37738         1062          627 
   44000    297.41605    292.83903    2715.1217    37730         1054          618 
   45000    297.38387    291.64635    2699.1313    37721         1045          610 
   46000    288.51215    296.89895    2732.1423    37755         1079          630 
   47000    289.65371    298.51382    2690.2016    37691         1015          603 
   48000     277.0801    284.21543    2570.7542    37695         1019          603 
   49000    290.93133    293.53766    2700.0053    37732         1056          629 
   50000    300.40638    286.55456    2665.7205    37707         1031          620 
   51000    292.07817    290.27037    2664.3717    37707         1031          626 
   52000    282.07225    304.67116    2710.4701    37697         1021          615 
   53000    284.76427    293.27762    2659.4443    37708         1032          637 
   54000    283.91966    284.14333    2592.7253    37699         1023          609 
   55000    299.98651    295.34969    2745.1744    37735         1059          648 
   56000    294.65435    286.48007    2680.1998    37745         1069          634 
   57000    283.09063    282.81146    2592.0026    37709         1033          611 
   58000    290.28349    292.19029     2679.001    37717         1041          638 
   59000    293.75273      291.707    2694.5346    37728         1052          644 
   60000    280.39464    290.58193    2643.6097    37723         1047          647 
   61000    301.26875    293.00405    2721.6575    37723         1047          607 
   62000    303.61673    296.23717    2729.5169    37703         1027          628 
   63000    290.12119    290.83743    2663.5746    37709         1033          616 
   64000    287.38274    293.50164    2672.8078    37713         1037          616 
   65000     285.0604    299.30965    2685.6462    37694         1018          580 
   66000    283.77509    293.77089    2684.4015    37738         1062          607 
   67000     301.6236    294.33808    2731.4302    37725         1049          619 
   68000    291.55388     292.4091    2706.9792    37745         1069          615 
   69000    281.25297    297.92181    2688.7947    37721         1045          595 
   70000    296.82386    292.22618    2689.1052    37707         1031          625 
   71000    299.43853    287.71859    2687.6802    37725         1049          639 
   72000    289.83201    300.53489    2693.3327    37679         1003          613 
   73000    298.64548    287.92388    2672.9514    37713         1037          613 
   74000    304.67984    297.30221    2752.0459    37716         1040          592 
   75000      304.013    291.63521    2739.9652    37742         1066          626 
   76000     289.0937    287.70102    2646.3201    37717         1041          609 
   77000     289.6202    288.10731     2646.885    37714         1038          590 
   78000    292.79199    293.25261    2657.4562    37679         1003          563 
   79000    297.08476    287.95055    2683.8327    37729         1053          625 
   80000    298.88834    293.36175    2698.3286    37702         1026          630 
   81000    296.38102    286.58964    2631.6289    37684         1008          604 
   82000    293.39771    288.34428    2646.2914    37696         1020          605 
   83000    290.57181    287.14847    2608.8172    37673          997          573 
   84000    301.44071    293.13368    2675.0054    37671          995          565 
   85000    293.43942    289.03473    2619.3627    37662          986          579 
   86000    286.33433     297.2616    2650.2876    37664          988          582 
   87000    301.32081    278.21952    2577.0752    37661          985          572 
   88000    306.40196      292.463    2705.9525    37691         1015          590 
   89000    292.31741     288.1746    2635.2381    37688         1012          590 
   90000    287.24656    297.78582    2692.5439    37705         1029          580 
   91000    293.57509    301.28534    2747.3682    37721         1045          639 
   92000    295.04045      291.775    2673.2689    37697         1021          615 
   93000    295.02568    297.84009    2737.0555    37730         1054          625 
   94000    289.62356    292.16872    2705.8477    37753         1077          644 
   95000     291.3278    297.74445    2767.6505    37779         1103          667 
   96000    302.71633    298.09015    2784.2383    37752         1076          649 
   97000    290.43404    288.39518     2689.974    37758         1082          646 
   98000     286.0074     289.5177    2655.7909    37727         1051          605 
   99000    289.90768     294.1624    2694.7548    37725         1049          610 
  100000    289.63483    298.24925    2717.9887    37724         1048          601 
  101000    295.03273    291.66652    2700.8786    37728         1052          621 
  102000     295.8839    289.08296     2710.726    37756         1080          656 
  103000    293.78221    290.31776    2681.8028    37715         1039          625 
  104000    288.28742    294.76455    2662.7488    37686         1010          575 
  105000    285.18799    298.05455    2682.1019    37699         1023          631 
  106000     280.7789    294.12835    2654.3356    37709         1033          626 
  107000    298.01626    296.12551    2727.9303    37718         1042          601 
  108000    290.20668    289.65709     2698.474    37758         1082          635 
  109000    294.38603    292.69985    2728.1483    37757         1081          642 
  110000     296.6143    288.99998    2717.0056    37763         1087          671 
  111000    294.44291    290.49883    2678.1633    37715         1039          623 
  112000    289.89709    287.97383    2641.2017    37705         1029          611 
  113000    292.89686    294.58758    2709.0859    37726         1050          613 
  114000     296.6982    294.03149    2727.7118    37737         1061          621 
  115000    300.14603    290.32671    2697.5131    37719         1043          632 
  116000    293.62024    288.67027    2633.3312    37678         1002          568 
  117000    289.03208    288.96028    2619.2689    37677         1001          596 
  118000    293.11435    297.29318    2674.0492    37667          991          583 
  119000    293.99208    297.54703     2714.893    37707         1031          615 
  120000    298.77666    285.22066     2635.963    37686         1010          611 
  121000    289.14613    301.74218    2708.5405    37691         1015          604 
  122000    290.82722    287.07245    2611.5939    37673          997          576 
  123000    295.37364    294.65275    2675.1096    37680         1004          588 
  124000    295.54406    298.22171    2689.2572    37671          995          593 
  125000    296.44566    294.02768    2686.0555    37693         1017          596 
  126000    277.89742    291.41463    2635.2213    37718         1042          617 
  127000    290.04106    300.83478    2724.0647    37712         1036          627 
  128000    296.14169    288.77857    2679.2134    37721         1045          638 
  129000    293.52227    290.23431    2665.9526    37707         1031          616 
  130000    285.07376    292.88643    2663.5245    37715         1039          601 
  131000    280.54336    295.31957    2667.8305    37718         1042          611 
  132000    284.19503    285.90693    2632.1521    37730         1054          630 
  133000    288.71684    295.00246    2711.3496    37742         1066          638 
  134000    297.33521      291.269    2733.4087    37759         1083          626 
  135000    297.77981    296.62838    2755.5238    37748         1072          626 
  136000    295.13671    295.55158    2728.5753    37735         1059          643 
  137000    290.35454    296.71123     2702.844    37714         1038          611 
  138000    297.91422    287.19099    2690.4604    37738         1062          621 
  139000    294.17946      284.879    2685.9983    37762         1086          645 
  140000    291.37871    284.64141    2674.4798    37763         1087          635 
  141000    293.20381    300.21771    2736.8454    37719         1043          581 
  142000    292.88952    286.43861    2651.2813    37718         1042          591 
  143000    293.97224    289.18301     2674.424    37722         1046          605 
  144000    299.57113    296.18739    2790.5577    37783         1107          632 
  145000     296.4831    289.82835    2679.5309    37714         1038          617 
  146000    285.90128     291.1335    2636.1312    37692         1016          604 
  147000      286.112    289.35964    2655.0008    37727         1051          634 
  148000    292.25905    291.85442    2680.4436    37716         1040          614 
  149000    307.64547    294.05387    2743.5239    37718         1042          609 
  150000    289.85605     294.8903    2705.6588    37732         1056          646 
  151000    286.32988    288.73483    2630.2995    37700         1024          588 
  152000    300.27618    286.02368    2674.6741    37723         1047          610 
  153000    305.27474    291.35991    2708.3872    37707         1031          603 
  154000    286.39008     288.9367    2623.9268    37691         1015          593 
  155000    294.36016    295.89971    2699.4877    37702         1026          612 
  156000     289.7703    305.34158    2771.0563    37734         1058          639 
  157000    299.98955    295.30633    2740.7594    37731         1055          611 
  158000    287.88308    285.31213    2657.1202    37748         1072          663 
  159000    288.52689    292.66131    2700.1495    37741         1065          635 
  160000    301.76834     296.0028    2776.8758    37761         1085          620 
  161000    301.32796    296.21768    2757.3129    37739         1063          615 
  162000    290.31414    297.78083    2701.2468    37706         1030          608 
  163000    288.08971    299.83188    2735.9648    37737         1061          629 
  164000    298.51903    300.37862    2745.8723    37708         1032          606 
  165000    304.64523       295.74    2744.3293    37718         1042          620 
  166000    278.33356    304.43929    2705.9885    37707         1031          618 
  167000    289.31595    284.79138    2612.1941    37698         1022          616 
  168000    298.97007    291.87956     2727.753    37747         1071          650 
  169000    307.47888    288.04626    2719.7748    37733         1057          622 
  170000    286.76512    286.65307    2657.5181    37746         1070          640 
  171000    287.79986    294.81893    2693.4314    37726         1050          641 
  172000    297.18005    293.37785     2678.842    37685         1009          587 
  173000    299.28702     286.1937    2624.2898    37666          990          591 
  174000    295.61264    292.08473    2684.1297    37707         1031          629 
  175000    308.66482    293.99087    2704.2682    37672          996          575 
  176000    292.78806     290.3775    2671.6222    37713         1037          617 
  177000    288.18527    304.54094    2727.4277    37695         1019          610 
  178000    287.19206    305.39797    2711.8951    37675          999          574 
  179000    289.80804    295.47163    2645.2244    37658          982          560 
  180000    292.32171     292.4497    2678.1282    37710         1034          607 
  181000    296.45474    298.32192    2713.5365    37694         1018          618 
  182000      296.922    288.76991    2650.1922    37687         1011          594 
  183000    293.00652    301.23267    2726.4258    37701         1025          606 
  184000    278.10778    286.66487     2577.305    37682         1006          600 
  185000    300.38065    292.57569    2677.6111    37680         1004          585 
  186000    296.09203     287.4222    2670.0992    37722         1046          621 
  187000    288.01502    291.22252    2698.0582    37756         1080          646 
  188000    309.89931    292.75778    2746.6553    37724         1048          607 
  189000    293.37528    293.85741    2704.7348    37727         1051          627 
  190000    292.39779    290.18621    2653.3782    37696         1020          590 
  191000    297.57117    299.14191    2729.6733    37702         1026          586 
  192000    296.00431    296.15244    2758.6205    37761         1085          655 
  193000    291.65461    294.63315    2701.8954    37724         1048          626 
  194000    295.39524     301.7342    2758.8481    37726         1050          629 
  195000    283.90795    289.31523    2636.2692    37713         1037          633 
  196000    278.90643    300.15354    2661.9068    37682         1006          615 
  197000    301.76713    290.49722    2669.6791    37681         1005          599 
  198000    299.73752    295.97264    2692.7863    37676         1000          594 
  199000    297.95517    297.55143    2677.5447    37655          979          579 
  200000    289.94008    290.87829    2653.0783    37699         1023          601 
Loop time of 83099.6 on 10 procs for 200000 steps with 37699 atoms

Performance: 0.208 ns/day, 115.416 hours/ns, 2.407 timesteps/s
95.0% CPU use with 10 MPI tasks x no OpenMP threads

MPI task timing breakdown:
Section |  min time  |  avg time  |  max time  |%varavg| %total
---------------------------------------------------------------
Pair    | 109.68     | 958.65     | 6010.2     |5660.5 |  1.15
Bond    | 0.09053    | 0.10791    | 0.14256    |   4.5 |  0.00
Kspace  | 872.98     | 5827.1     | 6668.2     |2250.1 |  7.01
Neigh   | 1111.9     | 1112.8     | 1113.3     |   1.4 |  1.34
Comm    | 86.758     | 147.41     | 212.21     | 452.0 |  0.18
Output  | 0.035476   | 0.037419   | 0.053441   |   2.8 |  0.00
Modify  | 75001      | 75047      | 75111      |  19.0 | 90.31
Other   |            | 6.925      |            |       |  0.01

Nlocal:    3769.9 ave 5320 max 3421 min
Histogram: 8 0 0 0 1 0 0 0 0 1
Nghost:    9951.5 ave 11783 max 8918 min
Histogram: 4 1 1 0 0 1 1 0 1 1
Neighs:    171535 ave 1.10104e+06 max 15263 min
Histogram: 8 0 1 0 0 0 0 0 0 1

Total # of neighbors = 1715350
Ave neighs/atom = 45.5012
Ave special neighs/atom = 0.162339
Neighbor list builds = 410482
Dangerous builds = 0
write_data        C39_H2_1020watergcmc0.7ns.data
PPPM initialization ...
  using 12-bit tables for long-range coulomb (../kspace.cpp:321)
  G vector (1/distance) = 0.176183
  grid = 45 10 32
  stencil order = 5
  estimated absolute RMS force accuracy = 0.033056
  estimated relative force accuracy = 9.95471e-05
  using double precision FFTs
  3d grid and FFT values/proc = 4410 1800
WARNING: Neighbor exclusions used with KSpace solver may give inconsistent Coulombic energies (../neighbor.cpp:472)
run               300000
PPPM initialization ...
  using 12-bit tables for long-range coulomb (../kspace.cpp:321)
  G vector (1/distance) = 0.176183
  grid = 45 10 32
  stencil order = 5
  estimated absolute RMS force accuracy = 0.033056
  estimated relative force accuracy = 9.95471e-05
  using double precision FFTs
  3d grid and FFT values/proc = 4410 1800
WARNING: Neighbor exclusions used with KSpace solver may give inconsistent Coulombic energies (../neighbor.cpp:472)
Per MPI rank memory allocation (min/avg/max) = 9.641 | 11.05 | 21.43 Mbytes
Step c_mtem c_mwtem KinEng Atoms v_nH2 v_nbH2 
  200000    289.94008    290.87829    2653.0783    37699         1023          609 
  201000    292.56473    290.55785    2674.4989    37718         1042          622 
  202000    297.68891    294.20625    2729.6361    37737         1061          655 
  203000    275.24498    284.39026    2611.3264    37752         1076          654 
  204000    287.49266    298.99219    2703.5933    37709         1033          613 
  205000    298.52827    299.35771    2742.1982    37713         1037          618 
  206000    297.33634    297.15867     2721.831    37708         1032          614 
  207000    302.13133    290.03944    2703.2196    37718         1042          601 
  208000    286.53705    292.48354    2702.6597    37753         1077          639 
  209000     294.5782    296.20521    2717.0733    37717         1041          606 
  210000    281.17479     282.0495    2606.5816    37739         1063          608 
  211000    292.96679     298.2434    2758.1356    37758         1082          633 
  212000     289.8693    301.84131    2751.2696    37737         1061          636 
  213000    309.88356    295.82981    2768.1681    37726         1050          638 
  214000     298.2658    288.64521    2725.0934    37767         1091          664 
  215000    297.38733     290.3123    2679.0942    37707         1031          631 
  216000    287.53861    297.19202    2702.5609    37720         1044          613 
  217000    278.15822    289.20619    2622.9894    37718         1042          620 
  218000    292.10008    292.85981     2662.778    37690         1014          596 
  219000    302.12376    289.60735    2679.8634    37696         1020          593 
  220000    290.30115    290.69452    2649.1451    37695         1019          606 
  221000    292.71519    297.90671    2714.6852    37711         1035          617 
  222000    291.06251    298.66338    2692.5883    37685         1009          607 
  223000    284.43637    296.49019    2646.8398    37671          995          579 
  224000    295.11095    299.65739    2746.4794    37726         1050          606 
  225000    294.35902    303.29117    2780.0859    37742         1066          626 
  226000    284.41389    285.20553     2605.341    37703         1027          578 
  227000    287.49781    294.54061    2676.8949    37711         1035          622 
  228000    289.37813    310.38635    2768.9671    37697         1021          595 
  229000    296.25628    299.60595    2747.8839    37722         1046          640 
  230000    286.37453    289.76773    2655.0053    37722         1046          641 
  231000    293.25677    294.77274    2696.8316    37709         1033          605 
  232000    287.42696    287.13441    2627.1501    37705         1029          611 
  233000    289.82492    300.42396    2719.4026    37709         1033          637 
  234000    305.45582    288.80833    2709.5138    37724         1048          656 
  235000    286.70331    297.49487    2705.9736    37726         1050          627 
  236000    291.94377    290.44727    2633.4915    37672          996          574 
  237000     298.5486    297.93966    2690.1114    37664          988          567 
  238000    294.25626    293.17002    2688.6561    37709         1033          632 
  239000    300.24681    292.96777    2707.9288    37709         1033          608 
  240000    289.13896    284.13376    2607.2063    37693         1017          620 
  241000    291.25954    297.64275    2701.1472    37702         1026          605 
  242000    296.66225    297.27289    2690.3347    37674          998          567 
  243000    279.72247     290.6886    2606.2101    37678         1002          585 
  244000     288.2589    292.67145    2643.3647    37682         1006          593 
  245000    289.78981    297.43728    2692.8597    37700         1024          617 
  246000    288.92076    279.21229    2556.1785    37674          998          593 
  247000    299.01122    296.38545    2680.4806    37662          986          588 
  248000    303.77675    292.14087     2693.058    37687         1011          623 
  249000    302.76313    292.75926    2737.9863    37737         1061          640 
  250000    290.42715    292.50105    2679.2554    37716         1040          608 
  251000    295.52795    297.05074    2742.5011    37739         1063          618 
  252000    296.31519    298.91456    2719.6549    37698         1022          615 
  253000    304.24437    300.19087    2786.1967    37734         1058          627 
  254000    287.15801    297.71592     2722.873    37742         1066          632 
  255000    295.72604    297.23203    2717.4803    37709         1033          613 
  256000    302.66804    292.22157    2701.6725    37702         1026          599 
  257000    291.22775    300.58051    2723.2733    37708         1032          645 
  258000    293.16819     297.1166    2703.1345    37703         1027          593 
  259000    297.95313    293.46126    2702.6179    37709         1033          604 
  260000    294.20362    296.07653    2727.9653    37733         1057          620 
  261000    305.28377    295.13863    2732.4729    37707         1031          606 
  262000    293.35758    289.53158    2679.2092    37728         1052          625 
  263000    293.70778    298.73067     2732.481    37719         1043          616 
  264000    304.00449    298.16582    2734.6094    37694         1018          639 
  265000     303.9796    295.95829    2710.9732    37682         1006          600 
  266000    307.27922    294.27311    2720.2906    37693         1017          628 
  267000    286.69062    287.92193    2635.2739    37711         1035          606 
  268000    302.52251    291.25516     2693.277    37700         1024          593 
  269000    278.28506    295.68402    2660.9031    37717         1041          603 
  270000     297.1317    300.72509     2774.976    37745         1069          641 
  271000    300.04214    295.81236    2748.3108    37739         1063          633 
  272000    288.69953    298.39282    2706.7501    37713         1037          613 
  273000    298.02221    298.52821    2720.6132    37695         1019          626 
  274000    288.66567    294.67353    2651.4288    37672          996          619 
  275000    286.26319    288.43256    2614.9802    37684         1008          609 
  276000    299.55107    284.55907    2653.2329    37708         1032          611 
  277000    291.85913    302.11503    2741.1322    37716         1040          603 
  278000    285.36739    302.53014    2678.7329    37662          986          568 
  279000    294.15239    293.01019    2647.2773    37663          987          602 
  280000    286.21336    290.40777    2639.6617    37700         1024          600 
  281000    278.24936    292.42965    2631.4444    37705         1029          611 
  282000    288.68476    282.85551    2567.2528    37661          985          594 
  283000    295.43495    298.37375    2712.8317    37696         1020          631 
  284000    291.06353    293.63213    2666.3661    37691         1015          605 
  285000    303.69986    297.23406    2712.2488    37677         1001          616 
  286000    294.09511    292.50804     2656.737    37678         1002          585 
  287000     289.9637    284.01439    2580.3139    37664          988          589 
  288000    306.79329    294.84586    2726.3257    37697         1021          606 
  289000    281.41827    298.71326    2678.1114    37703         1027          607 
  290000    290.88592    296.76126    2678.9338    37685         1009          607 
  291000    290.54351    287.73759    2636.4154    37699         1023          607 
  292000    298.41687    292.51077    2698.8152    37710         1034          609 
  293000    287.37272    299.35818     2707.954    37711         1035          620 
  294000    303.03419    296.66262    2727.8219    37698         1022          589 
  295000      286.403    288.92336         2620    37688         1012          574 
  296000    290.23042    290.56936     2635.171    37681         1005          602 
  297000    298.21085    287.64121    2649.5288    37690         1014          599 
  298000    285.47953    296.41419    2667.3433    37692         1016          595 
  299000    291.71892    288.58526    2654.8823    37711         1035          629 
  300000    305.51522    296.99341    2755.5242    37720         1044          619 
  301000     291.0619    305.51664    2804.3816    37767         1091          641 
  302000    279.94779    288.57054    2620.5296    37713         1037          620 
  303000    299.42886     283.2451     2632.227    37697         1021          604 
  304000    294.03416    290.31107    2653.4307    37690         1014          574 
  305000    288.86647    291.52171    2649.3493    37694         1018          590 
  306000    291.12714    298.36382    2731.9098    37735         1059          633 
  307000    309.47795    298.87042    2797.6444    37739         1063          617 
  308000    285.14151    303.31025     2731.045    37720         1044          625 
  309000    282.86127    287.80896    2617.0878    37705         1029          611 
  310000    295.42629    289.90772    2658.1884    37693         1017          607 
  311000    283.29945    292.44739      2611.81    37663          987          573 
  312000    292.32719    300.85877    2695.9354    37672          996          583 
  313000    294.32909    296.55102     2691.334    37689         1013          580 
  314000    297.39577    291.74117    2661.7785    37677         1001          555 
  315000    286.98901    297.13731    2693.0033    37713         1037          631 
  316000    278.20897    291.30643    2652.7912    37740         1064          646 
  317000    292.46882    288.02964    2642.6144    37698         1022          611 
  318000    303.94123    297.14165    2730.1726    37694         1018          624 
  319000    288.63856    298.42055    2684.7517    37687         1011          618 
  320000     284.3769     286.6972    2571.4198    37654          978          570 
  321000    298.18937    294.04488    2702.4649    37706         1030          641 
  322000    286.15149    289.92782    2640.6097    37706         1030          630 
  323000    298.17379     298.5096    2738.0967    37715         1039          611 
  324000     300.7632    287.81911    2670.3953    37701         1025          600 
  325000    288.95234    288.44771    2638.9687    37703         1027          613 
  326000    311.46963      288.954    2753.7389    37747         1071          632 
  327000    298.90027    293.81393    2740.0663    37746         1070          634 
  328000    285.26344    282.53785    2637.8263    37758         1082          626 
  329000    290.29169    291.00791    2671.5435    37716         1040          583 
  330000    283.69143    292.00675    2675.0264    37740         1064          620 
  331000    300.86033    293.52638    2711.6433    37709         1033          615 
  332000    276.80248    288.44774    2598.7577    37701         1025          606 
  333000    289.48356     304.9106     2747.727    37709         1033          597 
  334000    290.45429    298.46331    2705.3925    37706         1030          593 
  335000    283.46106     287.7358    2625.7631    37713         1037          613 
  336000    293.09664    289.69219    2696.7432    37748         1072          627 
  337000    300.92566    295.64496    2744.8938    37731         1055          645 
  338000    304.85129    287.58484    2700.7781    37723         1047          612 
  339000    292.05817    293.13837     2675.075    37700         1024          635 
  340000    290.47748    295.61721    2666.8048    37680         1004          593 
  341000    304.12514    296.85862    2808.7571    37784         1108          678 
  342000    297.22305    297.84176    2762.8078    37750         1074          639 
  343000    279.16022    298.65916    2681.8455    37717         1041          607 
  344000    292.18562    288.10238    2672.7951    37733         1057          618 
  345000    291.37792    293.41768    2688.6371    37714         1038          599 
  346000    281.71804     290.9149    2647.3445    37723         1047          603 
  347000    292.73699    290.88264     2659.051    37697         1021          612 
  348000    285.82366    293.97874    2680.6148    37724         1048          614 
  349000    291.46185     297.2072    2721.1939    37728         1052          615 
  350000    299.31612    297.20178    2748.4929    37731         1055          628 
  351000    301.64867    294.17721    2747.0826    37742         1066          642 
  352000    302.10463     306.7886    2822.1986    37737         1061          618 
  353000    293.37076    288.04931    2662.5862    37715         1039          625 
  354000     296.7979    297.97103    2718.1516    37699         1023          593 
  355000    304.64236     292.3092     2715.908    37708         1032          613 
  356000    293.39441    296.79188    2701.0625    37700         1024          617 
  357000    297.44728    295.13648    2731.1286    37732         1056          640 
  358000     284.3783    300.68158    2720.1286    37728         1052          636 
  359000    287.91696     285.9996    2643.7802    37729         1053          633 
  360000    289.41661    303.34333    2730.0652    37701         1025          590 
  361000    292.94904    285.39255    2628.3462    37698         1022          598 
  362000    281.80957    291.04878    2637.1097    37708         1032          621 
  363000    294.00944    293.52311    2699.5293    37719         1043          606 
  364000    299.93114    297.15689    2738.2426    37717         1041          624 
  365000    278.82779    300.15928    2697.6817    37723         1047          631 
  366000    301.10654    288.05386     2681.418    37712         1036          636 
  367000    297.88746    293.61446    2707.8116    37716         1040          616 
  368000    284.16293    294.45194    2664.5347    37709         1033          610 
  369000    283.37387    299.29155    2675.5247    37689         1013          597 
  370000     291.1494    299.95728    2740.1357    37733         1057          651 
  371000    286.80096    298.33333    2751.2097    37770         1094          652 
  372000    290.32308    296.50214    2742.3888    37762         1086          621 
  373000    294.80769    292.24443    2711.3237    37740         1064          639 
  374000    294.60617    296.97991    2699.4294    37692         1016          627 
  375000    283.68894    297.71479    2683.9364    37709         1033          620 
  376000     288.7664    294.40309    2683.7511    37713         1037          613 
  377000    296.59206    297.05763     2711.633    37700         1024          595 
  378000    307.76237    290.70856    2718.0398    37713         1037          611 
  379000    294.65816    292.43397     2675.216    37698         1022          628 
  380000    294.40032     290.2524    2632.7477    37665          989          569 
  381000    302.59415    284.94576    2629.3132    37671          995          600 
  382000    298.79424    303.26249    2719.3996    37660          984          582 
  383000     296.9538    290.38907    2627.4114    37650          974          587 
  384000    293.62274    291.20669    2622.5499    37648          972          583 
  385000    289.58667    292.68734     2635.346    37666          990          601 
  386000    288.85039    288.97872    2621.0618    37679         1003          621 
  387000    313.17717    304.48714    2807.1539    37700         1024          628 
  388000     292.5833    292.68856    2673.8449    37702         1026          640 
  389000    290.76082    294.52382    2689.5892    37713         1037          597 
  390000    298.86443    295.16173     2720.239    37716         1040          609 
  391000    303.78841    286.29228    2706.5115    37742         1066          634 
  392000    289.84261     290.0417    2671.3386    37726         1050          620 
  393000    280.29424    291.00891    2639.9073    37718         1042          637 
  394000    301.78447    285.07182    2659.9358    37706         1030          613 
  395000    294.93974    298.79135     2699.106    37675          999          592 
  396000    293.86653    292.56433    2668.7705    37692         1016          611 
  397000    284.30032    289.05706    2653.0666    37733         1057          640 
  398000    278.55788    284.69429    2588.6524    37710         1034          602 
  399000    290.29039    305.67021     2746.794    37704         1028          599 
  400000    283.12902    296.43897    2648.2013    37676         1000          596 
  401000     295.7552    300.26086    2693.8928    37661          985          568 
  402000     288.4517    293.70767    2636.5781    37666          990          587 
  403000    293.90855    296.09112    2719.0392    37721         1045          604 
  404000    294.43091    291.51924    2687.4961    37719         1043          633 
  405000    299.81845    297.95688    2731.9816    37706         1030          617 
  406000     292.1969    298.13875      2732.92    37733         1057          634 
  407000    281.39268    286.06477     2592.418    37692         1016          573 
  408000    301.51997    296.35087    2732.1174    37711         1035          606 
  409000    294.53142    297.60594    2668.6354    37656          980          577 
  410000    283.23281    295.99129    2632.2146    37663          987          582 
  411000    284.43835    298.55452    2675.4056    37691         1015          608 
  412000    290.65461    298.56009    2701.2443    37698         1022          595 
  413000    292.33411    283.07865    2640.7083    37732         1056          610 
  414000    295.42263    296.48347    2722.5087    37717         1041          610 
  415000    293.98708    298.85679    2726.0461    37713         1037          608 
  416000    295.13978    296.55324    2743.4232    37746         1070          638 
  417000    298.45695    289.34958    2677.9401    37707         1031          615 
  418000    302.02639    295.26171    2747.2162    37731         1055          647 
  419000    290.04402     292.1609    2686.0694    37726         1050          634 
  420000    296.03667    292.76784    2691.4191    37708         1032          613 
  421000    305.73819    301.85838     2748.878    37678         1002          567 
  422000    279.97941    298.75761    2689.6573    37723         1047          621 
  423000    297.41257    284.66199    2683.0232    37751         1075          639 
  424000    296.48769    295.36397    2745.7275    37750         1074          616 
  425000    275.88946    301.25531    2708.2258    37743         1067          625 
  426000    295.22892    287.74737    2669.1081    37721         1045          604 
  427000    296.49606    297.31738    2729.6334    37720         1044          599 
  428000    294.96057    297.19087    2736.6051    37734         1058          634 
  429000    290.22194    306.02976    2791.5345    37752         1076          645 
  430000    292.48812    292.76109    2721.0112    37752         1076          626 
  431000    298.18632    297.65513    2736.6493    37718         1042          632 
  432000    298.35528    289.00688    2680.2959    37713         1037          601 
  433000    298.53912    292.22846    2683.0389    37693         1017          604 
  434000    295.37173    292.30936    2682.2548    37703         1027          606 
  435000     286.5964     281.3635    2589.2527    37703         1027          623 
  436000    289.40022    292.86512    2648.0232    37681         1005          581 
  437000    303.09736    275.85031    2624.0831    37724         1048          629 
  438000    292.25248    297.99283    2705.7965    37702         1026          607 
  439000    277.98321    286.43748    2577.3689    37685         1009          606 
  440000    292.27776    295.34682    2709.6255    37723         1047          641 
  441000    285.73228     299.9562    2734.4208    37746         1070          657 
  442000    290.36783    296.75341    2739.5238    37755         1079          675 
  443000    296.97106    292.96871     2719.122    37736         1060          642 
  444000     293.9543      286.431    2673.7733    37740         1064          644 
  445000    291.74383    286.44299    2677.5849    37753         1077          643 
  446000    289.75708    294.81292    2721.6545    37753         1077          643 
  447000    290.78274    297.24764    2713.2048    37722         1046          624 
  448000    297.57197    299.05002     2762.159    37738         1062          661 
  449000    289.74492    289.51651    2642.3532    37698         1022          624 
  450000    299.69734    281.06345    2628.5746    37706         1030          609 
  451000    293.98335    286.77371    2625.4503    37683         1007          581 
  452000    298.81402    286.51692    2640.8812    37686         1010          617 
  453000     286.3245    290.83807    2634.9399    37689         1013          621 
  454000    286.76337    288.42841    2603.2571    37671          995          604 
  455000    273.23508    292.91577     2580.714    37658          982          576 
  456000    298.14201    289.64725    2665.8259    37694         1018          626 
  457000     298.0373    292.16144    2668.1332    37680         1004          607 
  458000    291.57505    287.74764    2630.8088    37690         1014          588 
  459000    288.87886    291.92903    2641.7047    37681         1005          598 
  460000    289.98381    301.14208    2705.9597    37689         1013          609 
  461000    287.42915    296.04995     2627.193    37643          967          593 
  462000    292.26214    295.75016    2646.4156    37649          973          590 
  463000    280.05821    290.94205    2633.0205    37712         1036          614 
  464000    293.65564    292.86656    2686.4295    37711         1035          608 
  465000    287.21851    292.88364    2714.8455    37767         1091          622 
  466000    294.45848    293.83387    2729.0554    37750         1074          595 
  467000    287.65412    292.54273    2683.1854    37731         1055          640 
  468000    302.79957    297.70655    2736.5349    37700         1024          597 
  469000     296.5533    294.28488    2697.1065    37703         1027          607 
  470000    287.82332    288.61139    2647.8244    37717         1041          611 
  471000    286.69106    297.34566    2722.7216    37747         1071          618 
  472000    288.86508    293.17253    2696.3554    37737         1061          622 
  473000    287.44319    301.46964    2730.1433    37723         1047          624 
  474000    288.78161    293.99394    2716.4376    37755         1079          635 
  475000    300.36037    289.91671    2750.8611    37781         1105          665 
  476000    301.27409    294.65008    2726.7179    37717         1041          609 
  477000    287.50775    297.79508    2703.9716    37718         1042          624 
  478000    292.17694     294.7574     2741.567    37767         1091          626 
  479000    299.50497    290.26383    2692.1418    37714         1038          601 
  480000    289.53493    296.41843    2673.0802    37682         1006          589 
  481000    289.90424    294.05499    2649.4965    37672          996          579 
  482000    291.99955    285.00487    2611.8306    37686         1010          585 
  483000    300.53896    287.64878    2678.7098    37714         1038          608 
  484000    297.82546     289.6944    2680.7852    37711         1035          622 
  485000    287.76481    292.86887    2653.3231    37689         1013          612 
  486000    283.96448    292.38494    2647.1727    37702         1026          624 
  487000    285.35777    293.22573    2675.1565    37725         1049          625 
  488000    295.20238    293.90248    2719.7468    37733         1057          631 
  489000    308.25777     297.7765    2798.7298    37752         1076          634 
  490000    292.09389     294.0905    2687.3376    37709         1033          597 
  491000    281.60229    292.81121    2671.9358    37739         1063          633 
  492000    287.85344    301.74007     2749.234    37743         1067          639 
  493000     293.2796    289.54219    2718.1873    37770         1094          637 
  494000     314.4657    293.52954    2816.0212    37775         1099          666 
  495000    291.86868    303.54748      2773.44    37741         1065          597 
  496000     298.3165    290.54596    2757.3958    37789         1113          669 
  497000    296.18547    286.02651     2732.346    37802         1126          681 
  498000    288.26225    298.03506    2743.2635    37761         1085          648 
  499000    288.80994    290.84788    2675.3285    37728         1052          635 
  500000    290.79717     293.2836    2676.6511    37708         1032          610 
Loop time of 129424 on 10 procs for 300000 steps with 37708 atoms

Performance: 0.200 ns/day, 119.837 hours/ns, 2.318 timesteps/s
95.0% CPU use with 10 MPI tasks x no OpenMP threads

MPI task timing breakdown:
Section |  min time  |  avg time  |  max time  |%varavg| %total
---------------------------------------------------------------
Pair    | 173.71     | 1510.1     | 9320.1     |6992.3 |  1.17
Bond    | 0.14532    | 0.16838    | 0.21366    |   5.1 |  0.00
Kspace  | 1402.3     | 9045.7     | 10365      |2794.4 |  6.99
Neigh   | 1777       | 1778.5     | 1779.3     |   1.9 |  1.37
Comm    | 115.24     | 219.68     | 327.25     | 619.3 |  0.17
Output  | 0.055072   | 0.056832   | 0.070641   |   1.9 |  0.00
Modify  | 1.1678e+05 | 1.1686e+05 | 1.1697e+05 |  25.5 | 90.29
Other   |            | 10.84      |            |       |  0.01

Nlocal:    3770.8 ave 5328 max 3434 min
Histogram: 8 0 0 0 1 0 0 0 0 1
Nghost:    10044.7 ave 11716 max 8940 min
Histogram: 5 1 0 0 0 0 0 0 2 2
Neighs:    171810 ave 1.07605e+06 max 16541 min
Histogram: 8 0 1 0 0 0 0 0 0 1

Total # of neighbors = 1718104
Ave neighs/atom = 45.5634
Ave special neighs/atom = 0.1623
Neighbor list builds = 615841
Dangerous builds = 0
write_data        C39_H2_1020watergcmc1ns.data
PPPM initialization ...
  using 12-bit tables for long-range coulomb (../kspace.cpp:321)
  G vector (1/distance) = 0.176183
  grid = 45 10 32
  stencil order = 5
  estimated absolute RMS force accuracy = 0.033052
  estimated relative force accuracy = 9.95352e-05
  using double precision FFTs
  3d grid and FFT values/proc = 4410 1800
WARNING: Neighbor exclusions used with KSpace solver may give inconsistent Coulombic energies (../neighbor.cpp:472)
run               300000
PPPM initialization ...
  using 12-bit tables for long-range coulomb (../kspace.cpp:321)
  G vector (1/distance) = 0.176183
  grid = 45 10 32
  stencil order = 5
  estimated absolute RMS force accuracy = 0.033052
  estimated relative force accuracy = 9.95352e-05
  using double precision FFTs
  3d grid and FFT values/proc = 4410 1800
WARNING: Neighbor exclusions used with KSpace solver may give inconsistent Coulombic energies (../neighbor.cpp:472)
Per MPI rank memory allocation (min/avg/max) = 10.04 | 11.44 | 21.82 Mbytes
Step c_mtem c_mwtem KinEng Atoms v_nH2 v_nbH2 
  500000    290.79717     293.2836    2676.6511    37708         1032          621 
  501000    313.42609    292.73118    2718.1934    37681         1005          599 
  502000    284.37035    301.05404    2709.7522    37714         1038          613 
  503000    298.41991    286.66717    2663.5771    37711         1035          637 
  504000    298.70132     292.8824    2708.7825    37715         1039          639 
  505000    291.19402    292.69318    2682.2503    37715         1039          626 
  506000     287.5284    291.33193    2664.8699    37718         1042          624 
  507000    295.49368    284.22128    2645.4798    37718         1042          602 
  508000    293.62966    283.75796    2641.0466    37721         1045          638 
  509000     286.7783    274.77081    2525.0039    37675          999          576 
  510000    298.67254    299.39079    2739.0298    37708         1032          612 
  511000    296.64087    300.63241    2737.1695    37703         1027          618 
  512000    286.12706    288.97902    2661.0541    37734         1058          633 
  513000    295.60555    296.29515    2738.8134    37737         1061          648 
  514000    294.77309    295.26662     2728.468    37738         1062          640 
  515000    287.63974    296.35994    2684.9658    37706         1030          615 
  516000    297.20471    282.68206    2629.2736    37704         1028          609 
  517000    298.23616     289.0365    2678.5469    37712         1036          614 
  518000    280.90862    292.63559    2648.8536    37713         1037          627 
  519000    309.95125     293.9739    2734.7568    37701         1025          598 
  520000    290.12921    287.64782    2655.1047    37724         1048          646 
  521000    300.85458    290.93488    2714.9274    37732         1056          641 
  522000    298.93293    289.38606    2708.9951    37740         1064          641 
  523000    304.99486    297.68648    2744.1755    37704         1028          581 
  524000    298.40345    292.18129    2695.2824    37709         1033          640 
  525000    294.58868    293.97287    2687.0816    37701         1025          607 
  526000     301.2707    286.63939    2651.8878    37687         1011          575 
  527000    294.62462    303.93498    2754.8542    37710         1034          619 
  528000    291.56077    286.35071    2637.9065    37706         1030          617 
  529000    283.78142    296.77058    2702.5957    37738         1062          612 
  530000    289.46019    295.87096    2734.2521    37761         1085          647 
  531000    291.32644    297.69084     2762.435    37773         1097          655 
  532000    297.67855     304.4422    2800.3894    37747         1071          620 
  533000    294.78151    289.52219    2698.7222    37744         1068          623 
  534000    281.91098    290.33996    2651.1736    37729         1053          600 
  535000    304.12192    301.51515    2780.2531    37716         1040          595 
  536000    293.35184    294.86818    2693.5506    37707         1031          595 
  537000    296.85952    296.38251    2709.5514    37702         1026          605 
  538000     297.4228    282.71981    2648.5651    37725         1049          623 
  539000    297.43523    294.85142    2726.0496    37728         1052          607 
  540000    296.25187     293.9712    2701.6011    37711         1035          602 
  541000    302.96781    284.75362    2686.6065    37733         1057          635 
  542000     293.2146    281.12626    2623.6215    37722         1046          597 
  543000    296.06371    285.17908    2652.9346    37716         1040          610 
  544000    301.26036    292.73537    2706.8235    37709         1033          624 
  545000    310.08642    295.41211    2743.1932    37700         1024          595 
  546000    292.72704    285.87696    2650.2001    37720         1044          646 
  547000    284.14504    292.02508    2667.6025    37729         1053          640 
  548000    301.18872    281.23089    2678.2393    37755         1079          640 
  549000    294.99754    303.06777    2771.4745    37732         1056          644 
  550000    296.19487    286.75604    2696.8549    37757         1081          678 
  551000    292.40917    299.31018    2747.6811    37741         1065          620 
  552000    280.99313     290.1885    2648.1241    37732         1056          607 
  553000    292.41722    300.45048    2796.1972    37789         1113          690 
  554000    294.39893    301.17954    2772.7187    37750         1074          636 
  555000    292.37711    292.62846    2709.2959    37744         1068          636 
  556000    282.60406    284.78663    2628.0099    37740         1064          596 
  557000    290.75857    291.97869    2687.7523    37730         1054          617 
  558000    299.98319    300.22944    2772.4994    37734         1058          624 
  559000    301.28467    298.65834    2753.8841    37721         1045          604 
  560000    301.39623    279.68354    2663.6797    37748         1072          623 
  561000    292.67859    290.73369    2665.0852    37702         1026          583 
  562000    292.00359    291.27542    2690.5664    37733         1057          602 
  563000    291.69063    292.00807    2683.8582    37720         1044          611 
  564000    303.94061    291.38485    2704.7643    37705         1029          567 
  565000    298.46268    297.53943    2734.0299    37715         1039          576 
  566000    288.46225    290.89731    2664.3872    37718         1042          602 
  567000    296.65748    297.01249    2730.9891    37722         1046          609 
  568000    297.70904    290.58401    2705.8162    37735         1059          634 
  569000    298.69936    295.29123    2708.2963    37700         1024          601 
  570000    285.28333    287.51794    2621.2483    37703         1027          610 
  571000    297.12207    291.43967    2691.5591    37714         1038          613 
  572000    298.48466    294.62165    2712.4345    37712         1036          615 
  573000    283.78185    290.80582    2669.0265    37741         1065          639 
  574000    281.08162    290.60181    2630.5715    37706         1030          602 
  575000    295.01061    289.75168    2686.6872    37729         1053          635 
  576000    290.65846    279.40099    2584.7427    37697         1021          640 
  577000    287.40319    302.10623    2715.3835    37699         1023          607 
  578000    305.58156    289.48315    2687.0476    37692         1016          606 
  579000    300.05629    293.98838    2701.3133    37697         1021          615 
  580000    303.28437    291.09737    2717.5685    37725         1049          610 
  581000    286.51895    297.33619    2674.2161    37691         1015          598 
  582000    293.45549    294.05233     2714.444    37734         1058          641 
  583000    297.36442    295.37741    2761.0662    37765         1089          651 
  584000    291.05355    292.25031    2667.5042    37701         1025          608 
  585000    307.18555    290.46564    2720.1075    37719         1043          628 
  586000    294.36555      297.787    2736.0201    37731         1055          640 
  587000    284.99251    292.18974    2649.4152    37700         1024          611 
  588000    292.70773    280.50947    2630.8271    37735         1059          649 
  589000    282.10162    279.40512    2571.9884    37711         1035          637 
  590000    301.50048    288.36709    2670.8957    37696         1020          617 
  591000    287.83351    293.94166    2664.6526    37698         1022          605 
  592000     289.8539    299.01678    2725.5928    37726         1050          620 
  593000    294.60704    294.70112    2685.8299    37694         1018          610 
  594000    300.04286    294.31966    2697.9597    37692         1016          618 
  595000    298.64361    305.55734    2760.8526    37690         1014          601 
  596000     283.7322    287.99552    2593.0623    37672          996          596 
  597000    292.96069    285.90162    2613.5915    37678         1002          608 
  598000    291.64798    295.88146    2665.3446    37673          997          587 
  599000    290.57331    295.66347    2675.4109    37690         1014          615 
  600000     285.9065    293.43499    2648.3387    37690         1014          612 
  601000     301.2768    289.58713     2700.691    37724         1048          638 
  602000    281.99844     293.7443     2665.216    37722         1046          623 
  603000    294.32673    284.81291     2644.985    37717         1041          637 
  604000    272.45757    291.11535    2600.5658    37699         1023          595 
  605000      294.651    287.72028    2645.5903    37697         1021          611 
  606000    296.32212    284.68597    2657.7964    37726         1050          627 
  607000    294.33186    297.45447    2700.1567    37693         1017          607 
  608000    297.73763    286.23498    2634.5452    37683         1007          577 
  609000    281.64213    294.13423    2621.3621    37666          990          579 
  610000    292.49856    291.87018    2622.8862    37649          973          594 
  611000    300.21143    293.72892    2675.4592    37670          994          595 
  612000     302.8621    295.40888    2705.7349    37684         1008          602 
  613000    286.85315    296.28368    2688.6354    37710         1034          633 
  614000    289.98643    285.21468     2631.156    37714         1038          617 
  615000    281.79953    290.48489    2646.6162    37724         1048          623 
  616000    293.02718    294.34712    2700.7679    37716         1040          627 
  617000    287.65976    299.41344    2706.0146    37709         1033          589 
  618000    299.48102    297.48694    2754.2156    37735         1059          620 
  619000    302.09201    287.53768    2731.9636    37769         1093          633 
  620000    280.99472    298.18401    2736.8057    37780         1104          670 
  621000    296.46693    290.20712    2706.0674    37740         1064          634 
  622000    299.27699    294.64799    2757.6522    37758         1082          653 
  623000    304.79623    295.14827    2742.5772    37717         1041          596 
  624000     292.4317    298.21945    2718.1506    37714         1038          596 
  625000    302.54432    289.37702    2678.3423    37696         1020          608 
  626000    299.07132    294.14404    2683.1874    37681         1005          585 
  627000    285.63165    286.34492     2600.994    37687         1011          603 
  628000    293.22171    294.34339     2683.062    37699         1023          613 
  629000    307.71412    301.14514      2778.55    37707         1031          629 
  630000    295.30878    283.90226    2636.8652    37710         1034          620 
  631000    298.66176    291.37649    2707.6846    37728         1052          656 
  632000    284.97238    299.02694    2736.1039    37757         1081          641 
  633000    284.19653    299.38003    2732.2246    37750         1074          647 
  634000     292.9538     289.5318      2711.99    37763         1087          658 
  635000    295.79143    300.41654    2784.4352    37761         1085          647 
  636000    295.06304    287.57314    2704.4031    37762         1086          641 
  637000     276.9654    299.58592    2680.2301    37717         1041          588 
  638000    288.12949    292.81881    2648.4995    37686         1010          585 
  639000    292.16037    287.37196     2614.159    37670          994          582 
  640000    300.11641    287.67431    2628.7467    37660          984          553 
  641000    285.75133    284.29733    2607.2046    37708         1032          598 
  642000    279.38407    296.35478     2645.604    37689         1013          567 
  643000    280.90518    299.95623    2685.0686    37705         1029          599 
  644000    284.25342    296.72308     2675.958    37705         1029          623 
  645000    302.61013    293.45941    2713.7263    37706         1030          633 
  646000    294.04455     287.5148    2635.1529    37688         1012          603 
  647000    294.90997    284.94019    2632.9918    37701         1025          596 
  648000    290.11074      304.383    2738.4869    37703         1027          608 
  649000    299.24603    298.01132    2732.5895    37709         1033          626 
  650000    299.16643    292.48435    2710.8433    37719         1043          634 
  651000    292.48001    296.96526    2691.3377    37692         1016          610 
  652000    291.29535    290.91273    2659.0033    37702         1026          625 
  653000    293.93654    298.76916    2708.6692    37692         1016          622 
  654000    293.15901    283.14342    2605.5776    37687         1011          597 
  655000    289.31798    292.04148    2676.7005    37720         1044          621 
  656000    284.76431    289.53743    2643.5965    37716         1040          615 
  657000    306.26733    289.38619    2717.4694    37725         1049          611 
  658000    286.31659    288.80398    2624.0063    37691         1015          578 
  659000    295.98037    296.28763    2699.6888    37694         1018          593 
  660000    304.31423    291.07512    2706.0946    37709         1033          623 
  661000    291.06129    296.42074    2680.1159    37688         1012          601 
  662000     288.4891    295.54633    2703.3107    37730         1054          625 
  663000    299.67238    280.07219    2679.5152    37767         1091          652 
  664000    297.13176    293.66092    2760.7904    37777         1101          628 
  665000    287.79888     297.6707    2771.0098    37797         1121          651 
  666000    285.47411    284.15688    2645.5198    37754         1078          613 
  667000      302.846    292.19478    2759.4667    37765         1089          638 
  668000    300.49988     291.3693     2693.794    37703         1027          589 
  669000    290.75457    293.92707    2694.5772    37722         1046          586 
  670000    284.24594    295.30529    2705.5258    37748         1072          602 
  671000    287.57017    291.21983    2687.9449    37746         1070          625 
  672000    297.25889    292.95811     2721.813    37738         1062          621 
  673000    300.24238    300.33691     2779.254    37742         1066          600 
  674000    282.75194    299.37413     2724.872    37748         1072          624 
  675000    294.95332    293.47375    2732.8307    37752         1076          636 
  676000     287.7124    290.21958    2681.4881    37745         1069          623 
  677000     286.7877    287.24878    2642.9244    37725         1049          596 
  678000    290.75878    295.91181    2709.6258    37727         1051          609 
  679000    304.95419    294.65428    2736.4128    37716         1040          591 
  680000     283.4402    289.02295    2630.2218    37709         1033          627 
  681000    297.28074    294.60542    2669.0054    37666          990          593 
  682000    296.98591    296.32866    2713.3107    37705         1029          598 
  683000    287.34498    294.80372    2675.1671    37706         1030          594 
  684000    284.22148    289.02208    2610.1006    37682         1006          576 
  685000    302.23067    293.36415     2710.416    37704         1028          619 
  686000    301.32903    287.25342    2673.4305    37707         1031          618 
  687000    289.58405    287.72172    2622.2356    37687         1011          572 
  688000    292.47413    285.90534    2641.7477    37713         1037          586 
  689000     296.6573    294.06791    2713.2593    37723         1047          606 
  690000    301.30291    293.08299    2714.7394    37715         1039          590 
  691000    296.03803    290.30717    2654.5989    37684         1008          611 
  692000    287.38612    298.02965    2678.1451    37688         1012          611 
  693000    287.68496    292.81857     2676.811    37722         1046          626 
  694000    292.86746    287.68138    2690.1593    37755         1079          642 
  695000    293.08827    296.67202    2723.7894    37727         1051          622 
  696000    288.94725    288.51923    2655.3493    37723         1047          618 
  697000    285.44108    291.06052    2649.7345    37711         1035          624 
  698000    294.18788    298.62188     2710.289    37696         1020          621 
  699000    296.22073    286.34619     2638.736    37691         1015          584 
  700000    278.00483    291.86585      2631.56    37710         1034          613 
  701000    299.23596    289.85173    2680.6713    37705         1029          604 
  702000    301.13917    296.95524    2739.1568    37716         1040          592 
  703000    281.82087    297.66258    2692.3101    37725         1049          615 
  704000    295.51491    291.88789    2668.1536    37690         1014          600 
  705000    288.28094    302.94588    2770.2045    37757         1081          645 
  706000    307.65321    293.63727    2727.0911    37702         1026          616 
  707000    289.03935    288.80602    2641.2692    37704         1028          631 
  708000    284.64477    293.71915    2616.2803    37655          979          578 
  709000     304.6635    298.14383    2723.5264    37678         1002          586 
  710000    287.73634    296.64336    2693.5754    37713         1037          611 
  711000    289.68617    300.88056     2730.912    37719         1043          625 
  712000    292.99445    291.84551    2700.1532    37734         1058          609 
  713000    310.15198    294.62641    2756.6547    37721         1045          601 
  714000    290.06028    293.33993    2690.9388    37725         1049          621 
  715000    294.22046    302.33446    2758.1904    37724         1048          624 
  716000    292.21432    292.32354    2707.8958    37743         1067          647 
  717000    275.73422      295.133    2673.2949    37744         1068          627 
  718000    291.29564    286.36537    2677.7932    37755         1079          637 
  719000    304.14564    292.29414    2743.5608    37742         1066          621 
  720000    285.70167    300.15562    2690.3634    37693         1017          555 
  721000    289.19817     295.6527    2684.6618    37705         1029          597 
  722000     303.1614    293.62068    2735.9028    37728         1052          622 
  723000    304.09926     290.9639    2732.2558    37738         1062          616 
  724000     295.1603    295.01455    2755.0978    37768         1092          666 
  725000    296.33405    276.82002    2623.2534    37741         1065          621 
  726000    285.90264    296.37332    2699.6067    37727         1051          588 
  727000     294.1343    289.85457    2732.1829    37779         1103          632 
  728000    301.64168    292.08349    2752.8461    37763         1087          646 
  729000    295.59003    289.21975    2705.1697    37749         1073          640 
  730000    290.70646    287.29625    2664.2546    37735         1059          626 
  731000     288.7393     290.9491    2668.2518    37721         1045          612 
  732000    283.95586    292.13959    2658.5038    37719         1043          605 
  733000    304.34379    305.60696    2798.3895    37713         1037          632 
  734000    291.94664    298.50271    2689.0481    37681         1005          597 
  735000    280.77597    302.15017    2680.5463    37685         1009          592 
  736000    294.12262    299.79345    2732.3612    37714         1038          627 
  737000    292.66972    301.69566    2739.5037    37712         1036          624 
  738000    298.08532    295.95623    2727.1718    37720         1044          623 
  739000    293.42097    292.35435    2722.6884    37758         1082          641 
  740000    280.27734    284.33102    2610.6162    37732         1056          635 
  741000    295.18117     297.8967    2727.2713    37717         1041          607 
  742000    285.77097    296.24641    2652.9489    37677         1001          575 
  743000    293.96536    298.08016    2697.2648    37686         1010          606 
  744000    293.74566    299.48462    2696.5666    37675          999          616 
  745000    298.29906     289.7107    2666.6608    37695         1019          619 
  746000    295.40863    295.53008    2668.5441    37667          991          608 
  747000    299.32382    290.68472    2650.7361    37667          991          588 
  748000    283.27992    298.33508     2659.978    37679         1003          609 
  749000    293.48123    293.54019    2658.4306    37676         1000          609 
  750000    305.36469     300.4664    2749.6474    37690         1014          630 
  751000     292.2505     289.8873    2619.6821    37661          985          597 
  752000    304.56172    291.20902    2653.5735    37648          972          565 
  753000    298.13287    288.23753    2625.7848    37659          983          579 
  754000    300.93321    296.98169    2737.0976    37714         1038          611 
  755000    297.52817    288.74727    2683.6096    37720         1044          618 
  756000    281.57379     292.4888    2640.1195    37704         1028          617 
  757000     283.7962    295.08971     2646.037    37683         1007          597 
  758000    295.56776    297.99906    2703.7667    37688         1012          598 
  759000    298.73361    298.10278    2735.8623    37714         1038          612 
  760000    293.30859    291.31065    2694.3991    37733         1057          622 
  761000    291.07099    291.48711    2669.5252    37710         1034          610 
  762000    284.78795    296.77888    2666.4209    37690         1014          579 
  763000    297.51143    292.66443    2715.8245    37731         1055          623 
  764000    292.97927    294.59011    2704.8222    37721         1045          606 
  765000    299.06041    294.20002      2719.32    37720         1044          627 
  766000    296.52845    291.54595    2653.4943    37670          994          575 
  767000    295.89169    288.06435    2612.8072    37653          977          552 
  768000    304.96277    288.00946    2679.5471    37698         1022          608 
  769000    284.91315    289.42531    2647.6126    37721         1045          607 
  770000    294.50426    296.86854     2716.728    37714         1038          597 
  771000    304.44821    287.98797    2726.8573    37750         1074          649 
  772000    286.91771    293.84367    2704.8239    37750         1074          661 
  773000    297.49806    295.21478    2712.3428    37710         1034          608 
  774000    288.57756    296.38304    2709.9725    37731         1055          647 
  775000    274.46082    290.91614    2622.7997    37721         1045          641 
  776000    291.43229    295.22977    2662.3726    37675          999          583 
  777000     305.9221    296.01496    2729.7477    37697         1021          601 
  778000    290.50426    299.52837    2682.5239    37670          994          618 
  779000    302.71287    291.95212    2696.1246    37696         1020          627 
  780000    291.42061    282.87965     2620.573    37714         1038          612 
  781000    303.30539    291.22829     2690.964    37694         1018          575 
  782000     279.3131    309.01019    2770.8733    37746         1070          590 
  783000    292.62621    290.60229    2699.3769    37744         1068          633 
  784000    300.40762    289.14051     2731.296    37762         1086          633 
  785000     292.6029    296.02843    2741.5568    37755         1079          648 
  786000    289.19501    298.59432    2748.7993    37759         1083          659 
  787000    279.50849    290.77592    2674.9612    37765         1089          665 
  788000    290.92671    298.06605    2721.7308    37724         1048          654 
  789000    296.76404    284.87503    2610.5155    37668          992          582 
  790000    303.91722    297.44634    2728.4251    37691         1015          611 
  791000     287.9078    290.60931    2632.1941    37682         1006          612 
  792000    287.09681     294.3745    2648.4056    37676         1000          587 
  793000    298.62105    300.37303    2733.6251    37696         1020          613 
  794000    287.46586    299.97994    2719.3353    37720         1044          640 
  795000    284.04909    289.88777    2642.8792    37715         1039          633 
  796000    295.82748    291.88512    2689.7419    37714         1038          634 
  797000    301.36331    294.77369    2705.3528    37691         1015          586 
  798000    297.81509    299.52096    2726.9151    37697         1021          601 
  799000    284.13842    283.15387    2596.2927    37708         1032          606 
  800000    285.43402    285.27123     2609.012    37704         1028          619 
Loop time of 141059 on 10 procs for 300000 steps with 37704 atoms

Performance: 0.184 ns/day, 130.610 hours/ns, 2.127 timesteps/s
95.0% CPU use with 10 MPI tasks x no OpenMP threads

MPI task timing breakdown:
Section |  min time  |  avg time  |  max time  |%varavg| %total
---------------------------------------------------------------
Pair    | 175.33     | 1632.3     | 10123      |7276.5 |  1.16
Bond    | 0.15107    | 0.17548    | 0.21716    |   4.7 |  0.00
Kspace  | 1535.6     | 9839.5     | 11279      |2897.4 |  6.98
Neigh   | 1928.8     | 1930.4     | 1931.2     |   2.0 |  1.37
Comm    | 97.969     | 217.24     | 334.93     | 689.9 |  0.15
Output  | 0.058802   | 0.06232    | 0.091536   |   3.9 |  0.00
Modify  | 1.2735e+05 | 1.2743e+05 | 1.2755e+05 |  26.6 | 90.34
Other   |            | 11.5       |            |       |  0.01

Nlocal:    3770.4 ave 5284 max 3436 min
Histogram: 7 1 0 1 0 0 0 0 0 1
Nghost:    10141.3 ave 12128 max 8971 min
Histogram: 5 1 0 0 0 0 0 2 0 2
Neighs:    172928 ave 1.06925e+06 max 14090 min
Histogram: 7 1 1 0 0 0 0 0 0 1

Total # of neighbors = 1729279
Ave neighs/atom = 45.8646
Ave special neighs/atom = 0.162317
Neighbor list builds = 615772
Dangerous builds = 88
write_data        C39_H2_1020watergcmc1.3ns.data
PPPM initialization ...
  using 12-bit tables for long-range coulomb (../kspace.cpp:321)
  G vector (1/distance) = 0.176183
  grid = 45 10 32
  stencil order = 5
  estimated absolute RMS force accuracy = 0.0330538
  estimated relative force accuracy = 9.95405e-05
  using double precision FFTs
  3d grid and FFT values/proc = 4410 1800
WARNING: Neighbor exclusions used with KSpace solver may give inconsistent Coulombic energies (../neighbor.cpp:472)
run               300000
PPPM initialization ...
  using 12-bit tables for long-range coulomb (../kspace.cpp:321)
  G vector (1/distance) = 0.176183
  grid = 45 10 32
  stencil order = 5
  estimated absolute RMS force accuracy = 0.0330538
  estimated relative force accuracy = 9.95405e-05
  using double precision FFTs
  3d grid and FFT values/proc = 4410 1800
WARNING: Neighbor exclusions used with KSpace solver may give inconsistent Coulombic energies (../neighbor.cpp:472)
Per MPI rank memory allocation (min/avg/max) = 10.43 | 11.84 | 22.22 Mbytes
Step c_mtem c_mwtem KinEng Atoms v_nH2 v_nbH2 
  800000    285.43402    285.27123     2609.012    37704         1028          626 
  801000    297.39004    291.71457    2690.4963    37708         1032          637 
  802000    290.20558    295.52407    2675.7771    37692         1016          600 
  803000    294.64036    292.65806    2672.9818    37694         1018          628 
  804000    295.20882    299.80227    2681.0917    37650          974          591 
  805000    301.81289    286.19716    2623.5925    37658          982          572 
  806000    295.77808     287.1066    2618.4985    37665          989          570 
  807000    300.60318    294.45034    2659.8637    37646          970          572 
  808000    299.32643    295.69312    2688.9186    37675          999          588 
  809000    281.19833    292.82475    2655.5841    37721         1045          619 
  810000     296.8534    291.29939    2667.5418    37690         1014          584 
  811000    295.71375     295.3012    2704.7694    37709         1033          630 
  812000    288.95017    287.47318    2665.5962    37740         1064          648 
  813000    287.44797    294.18744    2707.5277    37749         1073          635 
  814000    299.07084    292.77394    2722.3852    37733         1057          631 
  815000    289.18697    292.41621    2675.3888    37717         1041          609 
  816000     291.4562    289.95215    2677.5306    37730         1054          637 
  817000    288.16287    294.45437    2693.3735    37728         1052          636 
  818000    291.97979    294.43165    2717.8981    37740         1064          658 
  819000    290.85054    304.98678    2765.7111    37726         1050          609 
  820000    300.94139    287.27062    2725.3457    37767         1091          658 
  821000    289.12694    288.79462    2694.6736    37763         1087          688 
  822000    294.41658    288.75357    2707.3238    37761         1085          645 
  823000    292.61087    300.28919    2776.4488    37767         1091          661 
  824000    293.14258    297.11977    2735.1984    37739         1063          623 
  825000    293.76979    294.53871    2725.1907    37743         1067          641 
  826000    300.29016    288.43102    2673.2544    37701         1025          607 
  827000    289.98759    288.57772    2647.6199    37709         1033          589 
  828000    291.87171    294.66803    2693.1351    37712         1036          616 
  829000    300.44201    282.73724    2640.4762    37705         1029          627 
  830000    294.84687    295.51621    2678.8401    37680         1004          580 
  831000    286.28369    297.32317    2677.3621    37696         1020          601 
  832000    286.79812    292.97709    2651.9006    37694         1018          630 
  833000    296.91454    299.24573     2707.327    37680         1004          583 
  834000    281.73187     298.3456    2645.2695    37666          990          589 
  835000    294.29413    289.13213    2640.2606    37680         1004          576 
  836000      306.746    286.35452     2670.661    37694         1018          584 
  837000    297.20982    295.30333    2744.1517    37748         1072          640 
  838000      293.439    294.42404    2715.2929    37733         1057          597 
  839000    285.75352    290.82942    2666.6547    37730         1054          626 
  840000    299.99473     299.2279    2747.0447    37712         1036          635 
  841000    299.53363    294.16111    2737.1402    37739         1063          651 
  842000    303.10096    297.62586    2792.1839    37764         1088          654 
  843000    288.61628    297.26637    2730.3786    37750         1074          643 
  844000    306.48305    291.27669    2799.5811    37799         1123          682 
  845000    292.91025    291.28648    2716.5157    37759         1083          650 
  846000      285.666    290.43572    2681.6861    37753         1077          647 
  847000    284.96385    301.36219    2726.2038    37727         1051          619 
  848000    303.50943    292.94202    2743.0409    37739         1063          610 
  849000    280.34452    285.77399    2599.4321    37709         1033          591 
  850000    293.32738    291.92935    2709.3202    37744         1068          646 
  851000    297.37142    292.03384    2692.3082    37709         1033          597 
  852000    306.85175    293.58616    2711.2431    37689         1013          605 
  853000    299.67865    291.20928    2685.4816    37701         1025          627 
  854000    292.71955    299.91035    2716.2778    37700         1024          601 
  855000    291.56938    293.18621    2677.7409    37704         1028          580 
  856000    293.96744     285.6591    2600.4371    37662          986          589 
  857000    295.31005    292.90139    2644.5415    37657          981          585 
  858000     282.3233    293.13479    2608.0279    37658          982          582 
  859000    293.45682    295.99385    2660.1978    37659          983          589 
  860000    291.35035    291.43779    2640.0244    37676         1000          620 
  861000    299.93815    299.80089    2702.6779    37660          984          571 
  862000    296.00605    297.44174    2699.9655    37686         1010          607 
  863000    293.52368    297.96626    2740.1012    37737         1061          605 
  864000    296.00843    286.68648    2686.1572    37744         1068          618 
  865000    289.34437    296.44146    2726.3652    37746         1070          621 
  866000    284.51737    290.57783    2682.1906    37755         1079          655 
  867000    293.53879    296.54837    2750.1166    37758         1082          666 
  868000    290.04345    303.06569    2762.8403    37741         1065          623 
  869000    286.79179    292.69898    2673.6364    37722         1046          625 
  870000    281.90404    300.20591    2702.8725    37719         1043          593 
  871000    290.71374    291.03177    2659.0613    37702         1026          596 
  872000      297.103    293.49843     2718.775    37732         1056          623 
  873000    284.18075    296.45289    2714.8255    37753         1077          604 
  874000    294.55519    290.67445    2688.7552    37725         1049          600 
  875000    299.00987    289.84035    2708.9289    37738         1062          650 
  876000    296.05343     292.9446    2710.7942    37726         1050          627 
  877000    280.47647    287.76139    2617.8003    37715         1039          613 
  878000    287.22994    286.82679    2648.3111    37733         1057          632 
  879000    296.04562    302.24925     2763.291    37724         1048          611 
  880000     297.8972    293.95983    2734.0958    37743         1067          659 
  881000    295.29825     291.1697    2685.2402    37716         1040          633 
  882000    290.45371    288.01346    2641.5223    37704         1028          617 
  883000    291.52254    300.62652    2716.5795    37700         1024          601 
  884000    293.29119    292.32218    2668.3513    37695         1019          625 
  885000    300.11517    287.46481    2644.6359    37678         1002          609 
  886000    291.51671     287.0882    2577.0506    37634          958          563 
  887000    273.04939    299.76249    2635.9635    37675          999          612 
  888000    289.48603    300.84165    2689.9627    37673          997          581 
  889000     298.3384    288.63054    2660.2929    37695         1019          604 
  890000    296.62614    295.04817    2715.4885    37719         1043          647 
  891000    285.38836    293.59111    2642.3151    37683         1007          625 
  892000     291.0035     289.9148    2625.7343    37670          994          599 
  893000    290.64885    295.47329    2657.2362    37670          994          593 
  894000    289.24943    305.39422    2717.4619    37675          999          583 
  895000    305.90233     291.7854    2670.3051    37660          984          589 
  896000    289.03231    297.72949    2676.6088    37682         1006          613 
  897000    286.53201    292.44195    2629.2621    37672          996          596 
  898000    280.91656    292.62986    2658.4522    37726         1050          626 
  899000    301.82809     289.1831    2697.3102    37720         1044          623 
  900000    291.44465    289.39447    2691.6625    37748         1072          633 
  901000    286.05074    282.91104    2628.2697    37741         1065          614 
  902000    309.95893    293.79585     2761.403    37731         1055          618 
  903000    289.45608    296.43343    2728.7623    37750         1074          636 
  904000    301.41723     297.6293    2786.9782    37765         1089          629 
  905000     290.8551    288.58778    2697.3481    37763         1087          630 
  906000    281.74504    295.00489    2717.5653    37774         1098          630 
  907000     287.4385    295.83369    2710.3112    37741         1065          617 
  908000    299.59598    290.50902    2736.7708    37763         1087          629 
  909000    286.73079    285.69745    2652.9662    37747         1071          635 
  910000    294.94958    289.82048    2716.2309    37759         1083          634 
  911000    298.93518    289.97739    2789.9595    37829         1153          683 
  912000    296.11092    289.02512    2742.8856    37792         1116          664 
  913000     288.3661    293.32363    2749.6825    37801         1125          677 
  914000    292.64908    294.58152     2744.507    37768         1092          657 
  915000    300.49371     294.6329    2774.8824    37773         1097          656 
  916000    298.03428    299.23368    2792.9237    37770         1094          661 
  917000    303.05265    300.25979    2799.6965    37751         1075          643 
  918000    300.07209    297.11624    2754.7788    37736         1060          631 
  919000    294.60981    295.85589    2708.3261    37711         1035          619 
  920000    292.88144    295.21827    2696.3232    37705         1029          591 
  921000    283.80996    294.10797    2670.5563    37718         1042          623 
  922000    295.48234    300.64859    2734.1305    37704         1028          601 
  923000     287.7842    292.03217    2658.8137    37706         1030          622 
  924000    294.53863    292.87867    2667.2475    37684         1008          602 
  925000    284.89955    289.78614    2637.7163    37708         1032          618 
  926000    292.70627    295.22144    2699.8118    37714         1038          611 
  927000    295.56691    291.52447    2682.2788    37708         1032          616 
  928000    289.26899    294.98526    2693.1553    37716         1040          631 
  929000    289.66641     288.6482    2645.1643    37703         1027          612 
  930000    308.64107    300.61741    2774.6501    37705         1029          609 
  931000    286.89948    291.20501    2658.0869    37714         1038          622 
  932000    297.20447    291.52306    2674.7005    37695         1019          616 
  933000    302.56143     295.4937    2696.2661    37674          998          579 
  934000     285.3209    291.18192    2655.2223    37716         1040          594 
  935000     298.0521    291.20754    2722.5299    37744         1068          615 
  936000    312.48547    289.37363    2743.1314    37732         1056          635 
  937000    290.24495    296.74654    2727.7041    37745         1069          635 
  938000    309.16797    291.63526    2744.1518    37730         1054          629 
  939000    283.66801    297.87319     2681.873    37701         1025          616 
  940000    296.67836    287.03047    2660.6279    37711         1035          625 
  941000    288.59763    291.81162    2689.4346    37739         1063          643 
  942000    304.04446    292.48292    2734.7088    37731         1055          627 
  943000    311.70894    288.28797    2741.8943    37740         1064          661 
  944000    290.82915     293.3031     2689.578    37723         1047          628 
  945000    298.93494    286.46777    2636.1172    37681         1005          598 
  946000    306.78325    296.57184    2739.8977    37701         1025          633 
  947000    291.72759    282.96105    2575.7502    37660          984          592 
  948000    288.54585    300.46492    2705.5182    37696         1020          590 
  949000    295.27908    301.22261    2751.6353    37723         1047          616 
  950000    297.25837    301.80923     2744.098    37703         1027          612 
  951000    296.82152    299.86908     2733.469    37705         1029          618 
  952000    299.52685    293.13777    2701.9655    37707         1031          607 
  953000    306.42847    291.84459    2683.9749    37672          996          594 
  954000    297.71273    291.48079    2663.6234    37680         1004          571 
  955000    298.35017    288.04978    2643.0546    37678         1002          627 
  956000    296.51104    290.00525    2640.6438    37667          991          578 
  957000    295.34132     286.3348    2645.0234    37701         1025          620 
  958000    300.95315    281.73063    2641.0528    37709         1033          608 
  959000    299.02258    289.30944    2681.0458    37711         1035          624 
  960000     304.1511    289.64683    2691.7421    37703         1027          625 
  961000    284.50892    296.17056    2662.7628    37692         1016          635 
  962000    302.30365    298.93907    2698.7559    37655          979          591 
  963000    283.65495     289.0802    2593.4061    37665          989          588 
  964000    298.04462    295.59715    2698.1329    37689         1013          610 
  965000     298.1966    294.87255    2685.9881    37681         1005          606 
  966000    291.70509    301.13488    2705.3306    37683         1007          601 
  967000    289.86649    295.46178    2705.6899    37728         1052          628 
  968000    289.97198    296.44405    2703.5177    37720         1044          616 
  969000    291.45699    291.48438    2691.7379    37735         1059          652 
  970000    286.45339    301.69805    2719.6111    37713         1037          621 
  971000     292.0399    293.75496    2743.5018    37776         1100          701 
  972000    294.06583    293.77636    2729.6653    37752         1076          630 
  973000     308.9542    299.88825    2794.7357    37730         1054          603 
  974000    299.64359    296.56674    2742.1688    37726         1050          627 
  975000    286.80983    288.30025    2656.6382    37733         1057          614 
  976000    304.78874    293.47578    2757.7553    37749         1073          618 
  977000    289.64236    285.78073    2685.2927    37774         1098          656 
  978000    294.32026    281.96514    2661.6446    37754         1078          627 
  979000    296.53468    296.75607    2751.1795    37747         1071          638 
  980000    287.33672    291.28585    2681.7465    37739         1063          620 
  981000    289.44839    290.52367    2672.4143    37726         1050          613 
  982000    303.00406    293.56619    2740.5727    37735         1059          618 
  983000     295.9284    283.42362    2626.6043    37701         1025          609 
  984000    290.51265     293.4086    2685.2091    37718         1042          619 
  985000    288.00823    289.69917    2657.8866    37720         1044          621 
  986000    298.99843    296.37538    2732.5144    37720         1044          613 
  987000     303.7805    286.60758    2696.5371    37729         1053          624 
  988000    286.94275    287.60492    2637.0537    37714         1038          612 
  989000    294.03367    292.12161    2689.7356    37719         1043          646 
  990000    294.47008    295.32903    2725.8216    37736         1060          633 
  991000    291.62648     298.2486    2722.0958    37722         1046          626 
  992000    305.71443    285.69624    2661.4766    37691         1015          606 
  993000    296.64754    302.57103    2778.7342    37739         1063          623 
  994000    303.36019    287.62858    2659.6373    37682         1006          581 
  995000    287.38548     294.2525    2684.7847    37723         1047          623 
  996000    290.49172    290.44996    2711.0385    37767         1091          660 
  997000     287.1943    281.49648    2634.8305    37754         1078          635 
  998000    288.67093    292.37207    2675.7451    37720         1044          603 
  999000    302.38022    286.78971    2651.9341    37684         1008          596 
 1000000    298.76909    296.02388    2681.7662    37667          991          558 
 1001000    295.95688    292.12855      2648.04    37664          988          585 
 1002000    287.37177    294.26155    2694.3657    37734         1058          646 
 1003000    290.66748     286.5223    2631.3627    37703         1027          618 
 1004000    294.80497    293.44986    2677.1813    37692         1016          613 
 1005000    304.43476    295.76143    2695.8273    37665          989          585 
 1006000    290.80678    294.46114    2650.5749    37669          993          606 
 1007000      294.711    299.74423    2695.7015    37670          994          592 
 1008000    284.70176    291.53897    2636.8319    37695         1019          615 
 1009000    273.84939    299.46953    2634.5734    37674          998          592 
 1010000    290.43604    284.96743    2588.1346    37665          989          577 
 1011000    307.70269    286.00916    2692.3551    37715         1039          614 
 1012000    297.90777    301.40443    2780.4858    37744         1068          654 
 1013000    300.63537    301.51645    2776.5472    37729         1053          624 
 1014000    275.65257    290.51635    2658.8607    37761         1085          638 
 1015000    289.32835    292.82633    2696.4686    37739         1063          635 
 1016000     294.4936    290.47597    2685.1887    37723         1047          638 
 1017000    299.56628     295.3106    2734.6903    37729         1053          620 
 1018000    305.86218    293.97117    2759.5476    37742         1066          651 
 1019000    299.57666    298.20327    2772.6466    37751         1075          642 
 1020000    297.82182    296.87143    2762.6073    37753         1077          645 
 1021000    292.20599    282.15303    2639.5552    37737         1061          629 
 1022000    298.15341    286.63543    2667.0664    37716         1040          631 
 1023000    305.77115    292.08102    2734.3637    37727         1051          595 
 1024000    305.77639    302.36481    2798.5148    37728         1052          599 
 1025000    289.95932    301.10557    2777.9769    37772         1096          670 
 1026000    290.39152     299.9005    2758.2842    37754         1078          656 
 1027000    284.53446    289.68014    2652.2679    37723         1047          604 
 1028000    289.83513    292.19834     2661.534    37699         1023          599 
 1029000    308.90505    287.87147    2684.0837    37690         1014          611 
 1030000    290.55587    292.64242    2656.9526    37690         1014          617 
 1031000    294.10049    290.70512    2681.2185    37718         1042          621 
 1032000    289.23134    282.17603    2626.5423    37733         1057          654 
 1033000    297.31404    287.99506    2657.9653    37700         1024          614 
 1034000    301.03234    288.94857    2679.8727    37705         1029          612 
 1035000    278.81164    292.25076    2640.0292    37715         1039          623 
 1036000    301.97006    296.28399    2709.6772    37686         1010          616 
 1037000    302.01174    281.90778    2597.6123    37657          981          581 
 1038000    284.61433    293.96799    2648.3316    37691         1015          606 
 1039000    293.38676    295.02351    2681.5076    37692         1016          601 
 1040000    293.70913     285.3721    2609.2824    37676         1000          615 
 1041000    291.91735    290.43125    2663.4131    37709         1033          616 
 1042000    283.58825    302.65684    2700.5221    37693         1017          615 
 1043000    297.78647    296.92511     2731.791    37718         1042          609 
 1044000     291.9411    296.87405    2705.6634    37712         1036          619 
 1045000     286.3393    288.27561    2629.5578    37701         1025          593 
 1046000    290.33974    296.05464    2721.7416    37740         1064          645 
 1047000    291.35764     292.0139    2698.3635    37737         1061          636 
 1048000    291.57112    283.71338    2677.1892    37772         1096          662 
 1049000    284.64825    306.16707    2771.5938    37748         1072          614 
 1050000    298.56242     293.4404    2725.2078    37730         1054          626 
 1051000    285.11945    294.25556    2710.6727    37760         1084          636 
 1052000    292.54629    298.91854    2766.9426    37766         1090          645 
 1053000    287.07783    293.38735     2696.071    37742         1066          633 
 1054000    295.69233     292.1039    2736.0077    37766         1090          636 
 1055000    306.49104    290.34463     2746.711    37751         1075          648 
 1056000    303.20213    308.41685    2852.6605    37758         1082          671 
 1057000    300.41573     285.2017    2714.7221    37771         1095          637 
 1058000    292.40113    292.51547     2756.491    37797         1121          658 
 1059000    277.73934     291.4888    2668.6861    37759         1083          647 
 1060000    300.72886    289.98868    2720.6239    37745         1069          598 
 1061000    280.57462    294.70185     2685.489    37744         1068          640 
 1062000    289.92475    298.74308    2755.2594    37763         1087          665 
 1063000    296.97848    295.55621    2731.9316    37730         1054          621 
 1064000    299.51048    289.12487    2714.7167    37747         1071          641 
 1065000    303.42735    298.53575    2788.5062    37753         1077          648 
 1066000    285.02737     294.3278    2681.0038    37720         1044          598 
 1067000    299.29228    286.88276    2694.7333    37742         1066          639 
 1068000    290.64577    287.39694    2666.0219    37737         1061          639 
 1069000    290.95076    301.03004    2757.5599    37746         1070          635 
 1070000    297.53684    284.34783    2674.1731    37742         1066          644 
 1071000    301.48772    284.15063    2680.9219    37738         1062          655 
 1072000    295.25776    285.94942    2640.7031    37699         1023          616 
 1073000    284.55617    302.33697    2726.7512    37725         1049          652 
 1074000    305.12562    281.47001    2669.8658    37730         1054          666 
 1075000    273.25881    298.53407    2646.2856    37696         1020          588 
 1076000    287.39784    285.04701     2651.382    37748         1072          640 
 1077000    301.74598    294.74443    2783.1978    37776         1100          663 
 1078000    297.13287    290.82208    2720.4339    37751         1075          636 
 1079000    295.31755    292.66985    2700.5939    37722         1046          603 
 1080000    293.53862    296.50279    2679.4294    37678         1002          586 
 1081000    288.00668    294.77888    2647.7619    37672          996          569 
 1082000    307.93218    294.87461    2749.5401    37719         1043          628 
 1083000    286.79812    283.30642    2619.9594    37726         1050          622 
 1084000    287.47831    280.22719    2614.4803    37738         1062          623 
 1085000    300.31119    293.60181    2726.2618    37728         1052          604 
 1086000    293.93347    293.11538    2741.3068    37771         1095          656 
 1087000    284.61397     290.3248    2701.6194    37778         1102          640 
 1088000    300.46268    284.52253    2695.0313    37754         1078          656 
 1089000    297.22806    296.88653    2725.0567    37715         1039          626 
 1090000    303.17589    287.29131    2692.2424    37721         1045          609 
 1091000    303.19348    285.74363    2680.1491    37720         1044          619 
 1092000    292.24336     296.0699    2718.2779    37731         1055          632 
 1093000    280.68253    293.44069    2668.0532    37732         1056          619 
 1094000    294.94162    293.37518    2684.1036    37701         1025          608 
 1095000    295.73907    293.90327    2696.3652    37708         1032          636 
 1096000    292.10308     293.7482    2674.4809    37697         1021          599 
 1097000    283.42717    298.13144    2652.4588    37670          994          571 
 1098000    283.29322    290.96937    2640.9367    37709         1033          594 
 1099000    295.87292    293.37162    2631.8982    37638          962          564 
 1100000    308.13633    297.65523    2735.8739    37685         1009          626 
Loop time of 107480 on 10 procs for 300000 steps with 37685 atoms

Performance: 0.241 ns/day, 99.518 hours/ns, 2.791 timesteps/s
95.2% CPU use with 10 MPI tasks x no OpenMP threads

MPI task timing breakdown:
Section |  min time  |  avg time  |  max time  |%varavg| %total
---------------------------------------------------------------
Pair    | 137.44     | 1304.2     | 7814.2     |6254.6 |  1.21
Bond    | 0.1265     | 0.14718    | 0.19588    |   5.4 |  0.00
Kspace  | 1142.1     | 7527.9     | 8679.4     |2552.9 |  7.00
Neigh   | 1449.5     | 1450.7     | 1451.4     |   1.9 |  1.35
Comm    | 118.83     | 199.53     | 277.68     | 457.2 |  0.19
Output  | 0.047703   | 0.049698   | 0.065803   |   2.4 |  0.00
Modify  | 96934      | 96988      | 97068      |  19.8 | 90.24
Other   |            | 9.28       |            |       |  0.01

Nlocal:    3768.5 ave 5395 max 3422 min
Histogram: 8 0 0 0 1 0 0 0 0 1
Nghost:    9921.8 ave 11620 max 8939 min
Histogram: 5 0 1 0 0 1 0 1 1 1
Neighs:    171717 ave 1.1188e+06 max 15284 min
Histogram: 8 0 1 0 0 0 0 0 0 1

Total # of neighbors = 1717171
Ave neighs/atom = 45.5664
Ave special neighs/atom = 0.162399
Neighbor list builds = 615669
Dangerous builds = 0
write_data        C39_H2_1020watergcmc1.6ns.data
PPPM initialization ...
  using 12-bit tables for long-range coulomb (../kspace.cpp:321)
  G vector (1/distance) = 0.176183
  grid = 45 10 32
  stencil order = 5
  estimated absolute RMS force accuracy = 0.0330621
  estimated relative force accuracy = 9.95656e-05
  using double precision FFTs
  3d grid and FFT values/proc = 4410 1800
WARNING: Neighbor exclusions used with KSpace solver may give inconsistent Coulombic energies (../neighbor.cpp:472)
run               400000
PPPM initialization ...
  using 12-bit tables for long-range coulomb (../kspace.cpp:321)
  G vector (1/distance) = 0.176183
  grid = 45 10 32
  stencil order = 5
  estimated absolute RMS force accuracy = 0.0330621
  estimated relative force accuracy = 9.95656e-05
  using double precision FFTs
  3d grid and FFT values/proc = 4410 1800
WARNING: Neighbor exclusions used with KSpace solver may give inconsistent Coulombic energies (../neighbor.cpp:472)
Per MPI rank memory allocation (min/avg/max) = 10.82 | 12.27 | 22.61 Mbytes
Step c_mtem c_mwtem KinEng Atoms v_nH2 v_nbH2 
 1100000    308.13633    297.65523    2735.8739    37685         1009          628 
 1101000    292.76576    293.23656    2659.3251    37680         1004          610 
 1102000    302.55063    294.61497    2712.5135    37697         1021          617 
 1103000    281.39653     290.7033    2640.6254    37716         1040          620 
 1104000    292.41811    281.85647    2623.1157    37719         1043          644 
 1105000    297.10395    298.24416    2720.6261    37700         1024          605 
 1106000    299.16505    294.35862     2714.825    37714         1038          583 
 1107000    306.98546    298.51395     2774.663    37726         1050          643 
 1108000     291.0211    299.74565    2719.5495    37710         1034          625 
 1109000    282.31491    283.45012    2598.5753    37714         1038          597 
 1110000    285.31151    287.64213    2658.1378    37743         1067          625 
 1111000    308.73743    285.09533     2671.268    37694         1018          626 
 1112000    300.48935    304.90568    2775.2077    37704         1028          645 
 1113000    307.14409    286.25908     2663.225    37685         1009          591 
 1114000    288.98466    293.20666    2659.7386    37695         1019          596 
 1115000    289.41387     300.7687      2722.54    37710         1034          613 
 1116000    288.81077    287.10598    2658.1152    37731         1055          610 
 1117000    297.71843    294.76944    2735.9038    37733         1057          636 
 1118000    283.42545    282.15573    2608.5406    37730         1054          639 
 1119000     297.3614    298.59527    2722.9545    37697         1021          619 
 1120000    303.29738    294.62707    2720.7203    37700         1024          608 
 1121000    291.42123    292.72714    2693.0269    37725         1049          630 
 1122000      283.252    302.13769    2723.2584    37724         1048          608 
 1123000    289.10568    304.76802    2735.9946    37698         1022          591 
 1124000    312.18657    301.15089    2780.9905    37697         1021          592 
 1125000    297.38914    291.52328    2690.1079    37712         1036          612 
 1126000    289.24426    294.69034     2675.169    37701         1025          611 
 1127000    291.42159    290.83411    2677.4981    37722         1046          637 
 1128000    310.58842    291.69773    2731.3283    37711         1035          591 
 1129000    293.80304     281.9652    2644.5841    37737         1061          607 
 1130000    298.50615    297.38182    2723.5756    37705         1029          598 
 1131000    288.17379    288.82881    2641.4219    37707         1031          595 
 1132000    300.87255    281.31886    2634.2433    37705         1029          596 
 1133000    284.61302    289.67117    2609.8182    37677         1001          567 
 1134000    281.06689    286.85965    2585.2409    37679         1003          564 
 1135000    302.16174    296.17012    2716.1181    37693         1017          574 
 1136000    291.25082    299.36744    2682.2264    37669          993          566 
 1137000    290.30116      295.638    2700.4859    37720         1044          612 
 1138000    287.88871    292.40788    2667.0808    37712         1036          622 
 1139000    298.32907    281.66104     2596.361    37669          993          584 
 1140000    304.99762      293.624     2727.708    37712         1036          628 
 1141000    287.41531    295.32074    2684.1716    37713         1037          630 
 1142000    290.86735    296.81047    2709.7046    37720         1044          648 
 1143000    280.83913    295.58306    2692.7463    37746         1070          640 
 1144000    300.95541    291.71116    2720.1979    37732         1056          635 
 1145000    307.87092    291.05352    2714.3361    37706         1030          640 
 1146000    294.11826    295.43885     2691.632    37698         1022          584 
 1147000     282.4136    300.45241    2676.0009    37684         1008          580 
 1148000    291.54252    288.30026    2675.2712    37737         1061          638 
 1149000    298.10499    284.91165    2663.3013    37724         1048          607 
 1150000    303.62948    295.38706     2731.846    37711         1035          640 
 1151000    296.89637    301.64492      2741.02    37700         1024          624 
 1152000    302.01532    293.04623    2705.3557    37702         1026          633 
 1153000    293.93264    295.77607     2684.788    37689         1013          602 
 1154000    296.66203    295.85717    2703.4224    37699         1023          593 
 1155000    299.14898    284.43506    2644.5165    37702         1026          595 
 1156000    284.42687    296.58978    2658.3204    37684         1008          580 
 1157000    298.55056    293.25089    2728.6062    37739         1063          649 
 1158000    301.14193     291.9798    2729.8887    37739         1063          633 
 1159000    288.36652    302.37873    2728.4455    37712         1036          594 
 1160000    292.79272    293.11043    2670.9231    37695         1019          595 
 1161000    287.17297    298.74208    2695.3326    37704         1028          627 
 1162000    299.73712    294.54705    2707.5759    37702         1026          617 
 1163000    292.43897    299.65561    2733.8117    37721         1045          627 
 1164000    284.18974    293.78666    2677.1252    37727         1051          629 
 1165000    291.93552    292.38634    2684.8506    37717         1041          628 
 1166000     305.5273    297.35922     2745.695    37705         1029          619 
 1167000    291.92033    296.56749    2709.6791    37719         1043          628 
 1168000    291.83911    285.54433    2657.1736    37734         1058          623 
 1169000    295.15765    290.90514    2687.2861    37721         1045          637 
 1170000    293.15481    292.78401    2703.3079    37732         1056          648 
 1171000    301.62959     287.2546    2667.3163    37700         1024          607 
 1172000    302.50672    293.02117    2718.9806    37716         1040          642 
 1173000    293.02899    291.78862      2687.49    37722         1046          605 
 1174000    277.21736    290.01184    2614.5564    37707         1031          605 
 1175000     292.2459    296.45905    2732.5256    37744         1068          626 
 1176000    299.35693    285.24259    2664.8962    37720         1044          615 
 1177000    285.25323    287.40315    2616.2683    37698         1022          592 
 1178000    283.32149    291.15482    2666.0674    37737         1061          632 
 1179000    289.26514    294.19573     2702.066    37736         1060          630 
 1180000    290.87426    289.74552    2668.4383    37721         1045          612 
 1181000    296.02211    287.42481    2675.3196    37727         1051          617 
 1182000     309.3976    288.47435    2716.6772    37719         1043          651 
 1183000    287.06744     292.0636    2674.4998    37726         1050          637 
 1184000    294.18291    295.01831    2686.7351    37695         1019          601 
 1185000      297.571    295.51449    2726.9138    37725         1049          634 
 1186000    291.05037    293.90346     2713.139    37744         1068          666 
 1187000    298.11391    302.20586    2769.0597    37724         1048          628 
 1188000    282.88834    297.97561    2715.5689    37745         1069          654 
 1189000    277.66442    285.77499    2634.4345    37759         1083          631 
 1190000    299.44149     287.3947    2707.8296    37752         1076          634 
 1191000    296.03735    299.20796    2750.5413    37731         1055          636 
 1192000    288.16723    292.42701    2670.9972    37717         1041          624 
 1193000    308.22354     298.2419     2752.186    37696         1020          624 
 1194000    289.70666    288.36857    2598.5221    37655          979          575 
 1195000    306.38596    290.63593    2676.1424    37669          993          581 
 1196000    303.97338    287.85481    2662.4095    37684         1008          612 
 1197000    288.87869    284.59283    2563.2906    37644          968          560 
 1198000    295.70753    288.95197      2627.21    37664          988          590 
 1199000    283.50313    290.47286      2579.23    37639          963          594 
 1200000    291.91248    290.55192    2629.8197    37668          992          599 
 1201000    297.21198    286.75286    2649.1133    37699         1023          616 
 1202000    281.51576    288.32663    2622.3435    37711         1035          642 
 1203000    294.60888     287.2173    2666.4607    37720         1044          619 
 1204000    289.66249    298.47078    2719.5333    37722         1046          620 
 1205000     289.1905    295.59792    2695.2044    37718         1042          621 
 1206000    290.24811     284.9683    2626.9102    37708         1032          619 
 1207000    285.82547     299.0677    2691.1575    37700         1024          611 
 1208000    300.06128    297.51041    2720.6987    37696         1020          586 
 1209000    288.88254    295.25298    2667.6779    37689         1013          581 
 1210000    291.12493    286.94983    2623.0263    37688         1012          576 
 1211000    297.37527      295.996     2733.128    37729         1053          609 
 1212000    304.13578    291.82905    2754.2988    37755         1079          622 
 1213000    286.58561     289.6755    2664.8302    37734         1058          638 
 1214000    290.70257     291.3374    2661.2615    37702         1026          627 
 1215000    293.02082    284.94951    2652.5124    37730         1054          642 
 1216000    312.93036    298.10038    2802.7329    37738         1062          611 
 1217000    287.92614    293.13619    2697.7112    37743         1067          646 
 1218000     283.9215    294.54081    2697.9476    37746         1070          642 
 1219000    297.75448    285.31045    2654.2123    37712         1036          614 
 1220000    297.57919     299.1582    2744.9475    37719         1043          618 
 1221000    278.63061    292.53959    2650.1602    37725         1049          623 
 1222000     285.4656    289.45151    2660.4192    37735         1059          666 
 1223000    301.48321    298.08151    2774.3982    37745         1069          668 
 1224000     307.3136    291.60279    2714.4164    37702         1026          616 
 1225000    297.04914    301.49136    2775.2709    37739         1063          654 
 1226000    287.64767    294.38722    2657.1552    37684         1008          602 
 1227000    297.86386    287.38592    2617.3133    37653          977          571 
 1228000    295.62557    291.25342    2668.2023    37693         1017          612 
 1229000    298.97538    298.41848    2712.6833    37683         1007          606 
 1230000     292.0698    292.79384    2671.0423    37700         1024          601 
 1231000     292.3594    292.24525    2639.3921    37666          990          558 
 1232000    304.82288     280.2974    2618.0084    37683         1007          597 
 1233000    288.94794    293.43739    2690.9888    37728         1052          636 
 1234000    288.74723    297.47472    2722.4782    37738         1062          639 
 1235000    299.67723    287.58871    2680.2972    37720         1044          601 
 1236000    291.76521    291.61344    2701.9217    37744         1068          597 
 1237000    295.89914    295.46041    2738.4459    37744         1068          626 
 1238000    294.36394    298.34753    2757.9897    37751         1075          639 
 1239000    294.67661    292.82621    2712.1358    37736         1060          661 
 1240000    287.96206     291.8317    2677.2144    37729         1053          641 
 1241000     302.1492    293.98775    2713.9912    37706         1030          627 
 1242000    304.52357    295.04318    2726.6536    37701         1025          625 
 1243000    298.97346    286.15005    2637.1822    37682         1006          612 
 1244000    285.20634    302.49409    2722.4396    37714         1038          631 
 1245000    292.67896    294.53271    2699.4006    37715         1039          595 
 1246000    280.80107    299.89025    2689.9421    37710         1034          619 
 1247000    285.23748    293.70468     2671.596    37715         1039          626 
 1248000    298.04094    298.90801    2759.0437    37731         1055          623 
 1249000    279.39234    290.05373    2637.7403    37724         1048          631 
 1250000    293.61146    301.72345    2765.3868    37740         1064          620 
 1251000    298.23261    291.54983    2695.3402    37714         1038          611 
 1252000     292.9988    283.43695    2648.1471    37735         1059          626 
 1253000    284.89347    298.65908    2723.1324    37744         1068          647 
 1254000    302.95024    298.63285     2795.842    37760         1084          665 
 1255000     293.9107    283.93542    2645.3226    37725         1049          642 
 1256000    294.13688    285.87697     2647.189    37713         1037          615 
 1257000    294.59572    295.39345    2717.8654    37726         1050          632 
 1258000    289.84847    300.33292    2724.2812    37715         1039          603 
 1259000     294.0803    294.91097    2707.8381    37719         1043          615 
 1260000    306.74186    290.12513    2728.5733    37729         1053          635 
 1261000    281.96223    292.91052    2668.3198    37731         1055          609 
 1262000    297.37964     301.5516    2766.0758    37727         1051          624 
 1263000    303.39458    280.81049    2628.8101    37695         1019          591 
 1264000    294.48019    298.17027    2715.8205    37706         1030          613 
 1265000     276.0067    290.73232     2627.786    37722         1046          618 
 1266000    295.44679    292.71939    2693.9869    37714         1038          632 
 1267000      297.425    284.56929     2677.642    37745         1069          639 
 1268000     290.4315    301.00936    2714.2435    37697         1021          589 
 1269000    281.09087    291.13742    2652.1058    37729         1053          629 
 1270000     290.4157    301.56547    2706.2532    37684         1008          589 
 1271000    285.35182    296.71432    2658.2011    37681         1005          596 
 1272000    299.30479    290.11665    2696.0484    37720         1044          601 
 1273000    305.67872     281.8254    2703.4736    37761         1085          644 
 1274000    293.00921    298.95759     2742.462    37734         1058          625 
 1275000    297.83596    299.17103    2736.7812    37709         1033          619 
 1276000    289.59838    286.39498    2613.4635    37686         1010          603 
 1277000    277.74835    294.69269    2644.2359    37705         1029          614 
 1278000    296.32853    285.86831     2688.072    37752         1076          653 
 1279000     305.5212    300.84807    2790.3214    37732         1056          596 
 1280000    294.63403    284.94126    2654.7878    37727         1051          619 
 1281000    281.78612       298.51    2707.2011    37738         1062          