LAMMPS (16 Mar 2018)
#

# variables available on command line

variable        T index 293.15      # K
variable        P index 5     # MPa
variable	    fe index 1.0302
variable        Patm equal ${P}/0.101325       # atm
variable        Patm equal 5/0.101325       

# global model settings

echo               both
units              real
dimension          3
atom_style         atomic
boundary           p p p

read_data          C39H37O10NS.data
  orthogonal box = (0 0 -70) to (199.869 29.9804 70)
  5 by 1 by 1 MPI processor grid
  reading atoms ...
  33616 atoms
pair_style         lj/cut   12.5
pair_modify        shift yes mix arithmetic

# pair_coeff

pair_coeff 	1	1	0.105	3.851
pair_coeff 	2	2	0.06	3.5
pair_coeff 	3	3	0.06	3.5
pair_coeff 	4	4	0.105	3.851
pair_coeff 	5	5	0.069	3.66
pair_coeff 	6	6	0.105	3.851
pair_coeff 	7	7	0.105	3.851
pair_coeff 	8	8	0.06	3.5
pair_coeff 	9	9	0.06	3.5
pair_coeff 	10	10	0.105	3.851
pair_coeff 	11	11	0.105	3.851
pair_coeff 	12	12	0.274	4.035
pair_coeff 	13	13	0.044	2.886
pair_coeff 	14	14	0.044	2.886
pair_coeff 	15	15	0.044	2.886
pair_coeff 	16	16    0.072896 2.958

# region

region            soall  block  EDGE EDGE EDGE EDGE -22  22 units box side in

# define groups
group		      ggcmc type 16
0 atoms in group ggcmc
group             wall  type < 16
33616 atoms in group wall

neighbor          2.0 bin
neigh_modify      every 1 delay 1 check yes  exclude group wall wall

#MD settings

variable 	      type16 atom "type==16"
group 	            type16 dynamic ggcmc var type16
dynamic group type16 defined
variable          nH2 equal count(type16)
compute           mtem type16 temp/com
compute_modify    mtem dynamic/dof yes

fix               1  wall nve/noforce  # move linear 0 0 0

# gcmc
fix               2 ggcmc gcmc 100 100 100 16 29494  ${T} 1 0.5 region soall pressure ${Patm} fugacity_coeff ${fe} group ggcmc
fix               2 ggcmc gcmc 100 100 100 16 29494  293.15 1 0.5 region soall pressure ${Patm} fugacity_coeff ${fe} group ggcmc
fix               2 ggcmc gcmc 100 100 100 16 29494  293.15 1 0.5 region soall pressure 49.3461633358006 fugacity_coeff ${fe} group ggcmc
fix               2 ggcmc gcmc 100 100 100 16 29494  293.15 1 0.5 region soall pressure 49.3461633358006 fugacity_coeff 1.0302 group ggcmc

fix               3 type16 nvt temp ${T}  ${T}  100
fix               3 type16 nvt temp 293.15  ${T}  100
fix               3 type16 nvt temp 293.15  293.15  100
fix_modify        3 temp mtem
WARNING: Temperature for fix modify is not for group all (../fix_nh.cpp:1404)

thermo            1000
thermo_style      custom step c_mtem pe ke atoms v_nH2

run               1000000
Neighbor list info ...
  update every 1 steps, delay 1 steps, check yes
  max neighbors/atom: 2000, page size: 100000
  master list distance cutoff = 14.5
  ghost atom cutoff = 14.5
  binsize = 7.25, bins = 28 5 20
  1 neighbor lists, perpetual/occasional/extra = 1 0 0
  (1) pair lj/cut, perpetual
      attributes: half, newton on
      pair build: half/bin/atomonly/newton
      stencil: half/bin/3d/newton
      bin: standard
Per MPI rank memory allocation (min/avg/max) = 6.111 | 6.114 | 6.123 Mbytes
Step c_mtem PotEng KinEng Atoms v_nH2 
       0            0            0            0    33616            0 
    1000    295.65155   -12.155324    224.39382    33871          255 
    2000    282.51972    -20.43154    270.78034    33938          322 
    3000    291.37644   -22.700582    337.88014    34006          390 
    4000    301.08943   -30.304655    344.70146    34001          385 
    5000    282.59301   -34.821353    312.07326    33987          371 
    6000    297.72866   -44.790694    359.46185    34022          406 
    7000     278.4445   -45.351065    334.56915    34020          404 
    8000    281.13067   -55.850492    346.17855    34029          413 
    9000    286.63273   -48.326752    334.62127    34008          392 
   10000     324.4458   -42.567289    384.89741    34012          396 
   11000    299.38421   -40.688417    368.53291    34027          411 
   12000    280.96308   -44.824346    352.40575    34037          421 
   13000    313.21691   -44.405923    359.74928    34002          386 
   14000    268.57741   -47.604978    333.40174    34033          417 
   15000    317.42154   -49.301591    406.56505    34044          428 
   16000    277.90088    -43.12298     348.4036    34036          420 
   17000    296.44913   -46.355042    353.57347    34015          399 
   18000    300.27261   -44.797942    359.79884    34018          402 
   19000    307.15315   -43.497907    372.71002    34024          408 
   20000    286.37957   -42.003446    342.44329    34017          401 
   21000    303.29422   -45.457484    376.49295    34031          415 
   22000    278.15285   -52.856375     335.9731    34022          406 
   23000    320.68463   -49.561357    403.01851    34037          421 
   24000    288.82475   -53.401656    374.59736    34051          435 
   25000    317.07493    -56.88281    409.41258    34050          434 
   26000    305.24201   -50.245926    370.98238    34024          408 
   27000    301.43214   -57.440996    357.69431    34015          399 
   28000    303.33023   -50.201259    355.93946    34007          391 
   29000    295.53276   -40.815589    345.58929    34009          393 
   30000    279.44783   -51.216413    321.73504    34002          386 
   31000    294.28394    -53.64227    370.87736    34039          423 
   32000    268.79283   -49.369522    340.59522    34040          424 
   33000    307.31633   -54.047539    395.03299    34048          432 
   34000    296.53955   -45.809178    335.75124    33996          380 
   35000     286.7737   -52.686333    349.15424    34024          408 
   36000    303.44302   -49.350065    374.14024    34030          414 
   37000    292.78202   -55.813646    358.09797    34026          410 
   38000    298.63527   -52.280545     382.2086    34046          430 
   39000    275.87197   -56.963618     353.6261    34047          431 
   40000    288.76943   -48.512246    373.25681    34049          433 
   41000    297.54813   -62.524114    389.81622    34056          440 
   42000    293.47631   -49.369526    355.61395    34023          407 
   43000    282.03679    -51.97609    342.76243    34024          408 
   44000    288.66368   -49.757335    350.15475    34023          407 
   45000    300.25797   -51.793828    388.11454    34049          433 
   46000    301.56359   -50.821197    386.51599    34046          430 
   47000    302.75588   -54.343707    394.20674    34053          437 
   48000    295.91438   -71.875391    395.69416    34065          449 
   49000    295.96447   -66.272183    409.89608    34080          464 
   50000    301.56882   -56.917538    371.51941    34030          414 
   51000    312.31919   -56.939502    354.09628    33996          380 
   52000    285.44844   -54.287215    338.43901    34011          395 
   53000    303.20201   -56.910163     358.9038    34014          398 
   54000    269.49574   -62.157106    343.35594    34042          426 
   55000    285.48673   -56.595231    351.06057    34029          413 
   56000    281.96993    -56.87924    355.05739    34038          422 
   57000     288.3302    -61.34944    402.60803    34085          469 
   58000    284.35605   -63.059542    372.73992    34056          440 
   59000    289.91041   -65.986057     405.0137    34085          469 
   60000     287.9763   -53.720165      365.359    34042          426 
   61000    295.89625    -51.94912    366.36133    34031          415 
   62000    306.33861   -53.889833    402.73912    34056          440 
   63000    282.75595   -53.949552    361.77857    34045          429 
   64000    285.94803   -51.284035    342.18032    34018          402 
   65000    300.67554   -52.876023    363.11186    34021          405 
   66000    278.36929    -54.69188    294.96475    33972          356 
   67000    312.72123   -48.729577    371.03003    34013          397 
   68000    297.18266   -55.807568     373.5054    34037          421 
   69000    284.08809   -61.634047    346.76972    34026          410 
   70000    283.37398   -59.317107    352.50561    34034          418 
   71000    271.56202   -51.820828    351.30301    34049          433 
   72000    285.98262   -58.571082    367.40414    34046          430 
   73000    292.72171   -54.973929    343.01133    34008          392 
   74000    311.00402   -51.140687    361.02245    34006          390 
   75000    298.67094   -57.120154    349.91773    34008          392 
   76000     300.3834   -54.963487    374.31087    34035          419 
   77000    279.02801   -55.715891    374.29717    34066          450 
   78000    281.77554   -54.110383    367.36598    34053          437 
   79000      299.931   -51.852574    378.52815    34040          424 
   80000    283.06352   -53.473843    363.78765    34048          432 
   81000    312.30151   -45.470014    371.39633    34014          398 
   82000    300.88878   -46.891961    371.89579    34031          415 
   83000    295.88755   -46.223337    344.40017    34007          391 
   84000    303.35586   -56.430893    398.04935    34055          439 
   85000    299.73032   -61.360091     390.1742    34053          437 
   86000    292.40111   -52.786088    358.82746    34028          412 
   87000    273.51215   -43.191748    319.37003    34007          391 
   88000    301.54358   -44.846819    342.64799    33998          382 
   89000    287.25452   -51.802751     358.4204    34034          418 
   90000    314.37821   -48.474548    389.87533    34030          414 
   91000    294.11338   -53.290887    373.56357    34043          427 
   92000    275.12444   -56.051215    340.24472    34029          413 
   93000    301.72145    -55.96296    365.59193    34023          407 
   94000    289.61974   -55.382901    366.80889    34041          425 
   95000    276.73423   -51.426268    329.41287    34015          399 
   96000    294.03097   -56.835861    377.80009    34047          431 
   97000    311.05111   -55.858734    374.77965    34021          405 
   98000    294.25836   -47.185092    362.82058    34030          414 
   99000    300.68585   -55.861787    338.20431    33992          376 
  100000    272.88385   -52.797593    319.02455    34009          393 
  101000    286.85642   -54.827092    357.58821    34034          418 
  102000    304.52156   -55.385103    373.28441    34028          412 
  103000    311.67925   -56.660232    414.42421    34062          446 
  104000    301.83367   -56.395857    379.48357    34038          422 
  105000    279.63696   -51.374737    338.56822    34023          407 
  106000    286.67892   -57.512428    357.48395    34035          419 
  107000    273.15231   -51.854305    333.91725    34025          409 
  108000    314.03571   -49.456354     331.2693    33969          353 
  109000    290.54678   -53.539476    343.56274    34012          396 
  110000    289.48134   -51.610826    338.79265    34008          392 
  111000    300.22549   -51.522169    341.00611    33998          382 
  112000    289.52163   -49.433433    324.82422    33993          377 
  113000    295.69662   -56.346228    343.68063    34005          389 
  114000    300.70701   -50.677114     352.9734    34009          393 
  115000    277.89308   -51.250066    315.50905    33997          381 
  116000    283.18755   -44.635139    335.68878    34014          398 
  117000    274.06994   -43.028189     343.8772    34037          421 
  118000     298.4164   -50.360977    352.77539    34012          396 
  119000    308.21755   -51.116103    354.01107    34002          386 
  120000    278.85033   -57.302352    356.91301    34046          430 
  121000    306.25661   -54.032016    373.94714    34026          410 
  122000    293.01774   -48.465602    340.04724    34005          389 
  123000    297.92145   -58.182631    371.31851    34034          418 
  124000    294.69987   -56.553891    349.56261    34014          398 
  125000    274.86162   -60.336859    347.59391    34041          425 
  126000    296.83197    -59.10088    381.03991    34046          430 
  127000    301.99453   -54.220163    382.74333    34042          426 
  128000     304.8404   -57.035586    399.20925    34056          440 
  129000    303.71013   -48.485275    357.74531    34012          396 
  130000    294.33199   -48.702629    377.84726    34047          431 
  131000    310.03273   -49.533389    395.69187    34045          429 
  132000    306.25647   -55.711631    397.40544    34052          436 
  133000    264.51438   -49.267415    339.92919    34048          432 
  134000    291.81482   -60.256896    371.49315    34041          425 
  135000    281.09651     -56.5855    348.75495    34033          417 
  136000    293.54341   -59.522506     371.0357    34040          424 
  137000    278.04763   -63.544901    348.32288    34037          421 
  138000    288.01431   -62.971451    367.01231    34044          428 
  139000    286.42561   -51.124825    369.34168    34049          433 
  140000    302.59969   -52.070766     366.2015    34021          405 
  141000    314.60913   -49.723705    394.07471    34036          420 
  142000    302.28564   -49.894028    396.82948    34057          441 
  143000    306.96331   -53.223371    380.68785    34033          417 
  144000    310.65087   -50.762602    365.19233    34010          394 
  145000    296.03743   -44.580295    366.62347    34032          416 
  146000    279.79965   -45.581583    350.36446    34036          420 
  147000    279.46179   -53.935008    351.26203    34037          421 
  148000     307.7746   -53.959392    396.79413    34049          433 
  149000    297.32972   -57.868617    378.72798    34044          428 
  150000    294.97125   -55.036205    371.06859    34038          422 
  151000    293.26253   -50.783833    349.24583    34016          400 
  152000    289.78678   -50.249473     356.2825    34028          412 
  153000    310.61088   -54.981439    413.95781    34064          448 
  154000    294.74728   -51.145209    368.34149    34036          420 
  155000      283.716   -54.637617    348.49261    34028          412 
  156000    274.70268   -56.848407    349.64627    34043          427 
  157000    290.78255   -56.395116    363.87885    34036          420 
  158000     290.0342   -44.847907     339.5022    34008          392 
  159000    299.79424   -54.184782    334.42785    33991          375 
  160000    301.70809   -56.347943    371.61182    34030          414 
  161000    297.69328   -56.895883    373.34164    34036          420 
  162000    296.32102   -47.170753    379.10867    34046          430 
  163000    278.86831   -50.723904    326.77991    34010          394 
  164000    289.43399   -51.562997      347.723    34019          403 
  165000    315.10252   -50.532123    404.63922    34047          431 
  166000    297.80232   -55.319615    373.34329    34036          420 
  167000     280.2816   -49.037589    348.15512    34033          417 
  168000    287.79969   -58.136006    367.30344    34045          429 
  169000    291.27482   -60.673811    368.91589    34041          425 
  170000    279.16778   -55.967049    352.43282    34040          424 
  171000    298.90879   -51.198953    390.52951    34054          438 
  172000    305.56764   -50.253408    365.58079    34018          402 
  173000    299.46219   -41.261691    340.36557    33998          382 
  174000    270.87092   -49.833067     320.5486    34014          398 
  175000    291.96412   -47.756298    324.43468    33987          371 
  176000    304.68594   -48.921082    377.59992    34031          415 
  177000    307.81558   -56.088638    390.26947    34040          424 
  178000    318.52232   -50.229134    365.82886    34002          386 
  179000    295.19241   -53.424422     381.0323    34048          432 
  180000    297.70187   -55.602705    372.77775    34037          421 
  181000    283.77339   -50.084761    361.39957    34044          428 
  182000    294.55841   -48.437608    343.43879    34008          392 
  183000    300.62032   -51.206297    371.83203    34031          415 
  184000    292.85884   -46.190079    359.88816    34029          413 
  185000    298.16118   -53.601012    368.25575    34031          415 
  186000    304.69872   -46.576018    358.76804    34011          395 
  187000    274.29598   -53.490904    354.09342    34050          434 
  188000    297.06526   -45.594355    346.14953    34007          391 
  189000    313.09535   -48.380275    405.32436    34051          435 
  190000    287.53884   -44.684916    324.51536    33995          379 
  191000     285.0908   -49.583399    365.49586    34046          430 
  192000    303.27766   -48.017947    375.26199    34031          415 
  193000    298.58116   -57.026332    382.94562    34045          429 
  194000    296.91465   -55.561804    364.58468    34027          411 
  195000    323.32114   -46.429856    387.78635    34019          403 
  196000    282.21657   -51.240624    325.66167    34004          388 
  197000     274.0283    -47.14784    322.99742    34012          396 
  198000    283.54933   -55.756166    323.08332    33998          382 
  199000     292.5188    -49.52459    359.66933    34029          413 
  200000    294.98604   -47.761735    364.25312    34031          415 
  201000    277.36647   -49.437929    324.16565    34009          393 
  202000    303.30996    -52.63168    385.11224    34041          425 
  203000    275.57257   -45.493621    322.33896    34008          392 
  204000    300.62039   -43.059541    363.23641    34022          406 
  205000     289.3674   -49.662548    350.62294    34023          407 
  206000    296.83959   -51.987998     378.7965    34041          425 
  207000    300.39292   -43.882734    346.89925    34003          387 
  208000    292.92566   -47.179363    362.05025    34031          415 
  209000    291.66038   -46.464925    333.93079    34001          385 
  210000    288.10493   -44.556204    328.65897    33999          383 
  211000    307.96519   -40.727469    363.99333    34013          397 
  212000    281.91933   -42.499139    349.58668    34027          411 
  213000    294.75614   -49.753473    361.77777    34028          412 
  214000    296.00554   -51.774045    368.04005    34034          418 
  215000    278.66093    -52.44599     359.2081    34048          432 
  216000    287.97448   -50.745782    383.02439    34063          447 
  217000    280.08318   -41.270276    323.64673    34004          388 
  218000    310.20994   -37.363094    388.47598    34037          421 
  219000     298.1219   -40.511864    373.19439    34036          420 
  220000    294.43718   -42.654474    347.82414    34013          397 
  221000    297.21581   -42.294787    352.61723    34015          399 
  222000    289.79173    -44.56203    357.08381    34030          414 
  223000    285.92491   -46.383019    351.99172    34029          413 
  224000     296.7494   -41.007707    353.13844    34014          398 
  225000    300.46143   -43.089077    355.23094    34013          397 
  226000    284.20315   -45.859776    323.32598    33998          382 
  227000    296.35119   -45.421983    368.45665    34033          417 
  228000    286.70721   -44.770911    329.96373    34003          387 
  229000    296.88723   -37.927117    359.78214    34022          406 
  230000    293.28363   -47.531516    338.05229    34003          387 
  231000    298.66423    -47.82454    360.60934    34022          406 
  232000    299.42349   -55.486144    378.22951    34040          424 
  233000    311.59015   -58.714642    399.83632    34046          430 
  234000    317.69784   -48.868763     386.2657    34024          408 
  235000    278.65917   -51.990463    351.67336    34038          422 
  236000    291.78625   -45.001548    341.95003    34009          393 
  237000    297.50039   -38.348286    318.38517    33976          360 
  238000    278.80745   -45.164955     317.1303    33996          380 
  239000     301.1961     -40.1943    343.14298    33999          383 
  240000    313.67187   -35.400856    351.11787    33992          376 
  241000    289.45829   -42.632963    324.58144    33993          377 
  242000    296.99856   -52.691886    357.36583    34019          403 
  243000    281.86195   -51.741852    355.87501    34040          424 
  244000    291.79994   -46.318531    335.87275    34003          387 
  245000    299.97333   -49.383188     340.5239    33993          377 
  246000     295.8419   -50.699869    348.64383    34012          396 
  247000    280.08305   -55.125301    330.64997    34013          397 
  248000    280.61586   -49.939905    354.91006    34041          425 
  249000    279.59013   -54.196413    335.32777    34019          403 
  250000    285.45659   -49.491806     358.9022    34037          421 
  251000    311.18762   -56.239287    412.41383    34060          444 
  252000     297.4588   -54.964949    395.91825    34063          447 
  253000    291.58342   -53.299582    337.83774    34005          389 
  254000    298.66294   -41.026179    343.01578    34002          386 
  255000    288.00131   -43.137604    327.68695    33996          380 
  256000    273.77191   -49.131261    324.63099    34013          397 
  257000    303.74307   -47.100476     346.6198    33999          383 
  258000     288.8343   -46.058386    362.79932    34038          422 
  259000    293.78303   -44.855648    365.03565    34033          417 
  260000    309.10275   -51.276097    394.75455    34042          426 
  261000    281.06375   -50.833728     350.5915    34035          419 
  262000    292.45859   -54.960541    362.80287    34033          417 
  263000    316.95524   -49.856293     373.5648    34012          396 
  264000     292.4495   -46.638773    380.28061    34053          437 
  265000    289.98453   -55.421721    354.68324    34026          410 
  266000    276.93016   -56.460475    357.27391    34046          430 
  267000     297.0868   -52.815777    352.15054    34012          396 
  268000    300.92087    -56.57503    340.89342    33997          381 
  269000    295.42642   -60.061321    348.82723    34012          396 
  270000    289.80221   -67.801553     374.6381    34050          434 
  271000    297.84911   -64.374279    378.14658    34042          426 
  272000    293.18929   -56.658575    377.12454    34046          430 
  273000    291.23975   -48.770208    376.58739    34050          434 
  274000    294.60197   -58.665771     334.3307    33996          380 
  275000    293.81333   -57.749533    361.94252    34030          414 
  276000    291.55935   -46.777121    380.92495    34053          437 
  277000    275.72836   -46.925587     317.6954    34002          386 
  278000    287.65336   -50.000682     341.9272    34015          399 
  279000     321.0685   -51.999801    405.85152    34039          423 
  280000    278.47139   -58.984389    364.16765    34054          438 
  281000    309.61852   -56.172966     403.1889    34053          437 
  282000    289.08901   -54.694106    356.34022    34028          412 
  283000    315.48145   -47.735769    408.72759    34051          435 
  284000    288.06731   -48.302601    340.75639    34013          397 
  285000    294.00081   -52.691482    359.51806    34027          411 
  286000    308.45771   -45.750388    328.28009    33973          357 
  287000    294.31448   -43.796119    347.18321    34010          394 
  288000    266.77795   -44.429948     319.8786    34018          402 
  289000    294.61987   -46.352597    364.21244    34030          414 
  290000    308.35147   -45.620626    373.53975    34023          407 
  291000    288.92981    -41.89329     342.9993    34015          399 
  292000    287.23018   -44.712445    338.94311    34012          396 
  293000    290.23781   -40.625791    345.39232    34016          400 
  294000    283.86442   -45.030922    340.81525    34019          403 
  295000    305.21306   -45.914933     380.7216    34035          419 
  296000    305.76055   -47.962907    354.85503    34006          390 
  297000    305.14395   -50.895979    333.74045    33983          367 
  298000    297.38477   -51.906236    345.49542    34006          390 
  299000    315.03505   -49.651796    380.12198    34021          405 
  300000    290.07062   -56.093174    343.75644    34013          397 
  301000    298.48281   -56.650176     379.8152    34043          427 
  302000    280.46172   -53.290053    349.46801    34034          418 
  303000    288.19434   -47.986407    351.79781    34026          410 
  304000    326.34166   -52.766425    413.59543    34040          424 
  305000    291.93777   -46.816171    348.22266    34016          400 
  306000    297.09414   -57.046089    356.04973    34018          402 
  307000    283.09501   -58.030571    333.16219    34011          395 
  308000     302.4062   -63.468516    378.47542    34035          419 
  309000    284.32209   -60.043998    352.27543    34031          415 
  310000    284.31083   -55.703091    363.45609    34044          428 
  311000    305.45608   -50.663262    375.97933    34028          412 
  312000    279.87802   -62.505049    366.65902    34056          440 
  313000    286.37549   -55.920798    353.19509    34030          414 
  314000    299.38842   -48.146612    380.55082    34043          427 
  315000    313.75659   -53.078094    379.22513    34022          406 
  316000    298.19753   -45.468538    374.68802    34036          420 
  317000    297.41355   -46.976575    358.20324    34021          405 
  318000    302.07297    -49.13719    393.66749    34053          437 
  319000    291.77753   -54.689083    385.84347    34058          442 
  320000    285.78944   -52.269231    398.09821    34082          466 
  321000    289.20014   -49.238743    355.46854    34028          412 
  322000    304.16105   -47.966271     395.5753    34050          434 
  323000    301.77912    -44.43706    351.56991    34006          390 
  324000    287.30742   -52.304778    365.08786    34043          427 
  325000    288.36757   -43.288646    335.56594    34006          390 
  326000    296.39463   -48.717288    345.56663    34007          391 
  327000    294.28033   -43.540471    348.69959    34014          398 
  328000    287.82556     -45.7931    376.38378    34053          437 
  329000     298.9961   -46.247155    369.97727    34032          416 
  330000    278.61409   -52.448059     339.9934    34025          409 
  331000    298.89264   -50.652846    371.81701    34034          418 
  332000    297.42921   -60.561733    366.13344    34027          411 
  333000    298.52573   -54.572854    403.32959    34066          450 
  334000     290.2951   -59.571165     382.5485    34057          441 
  335000    309.69991   -61.776095    418.57977    34070          454 
  336000     290.8535   -54.801207    379.69494    34054          438 
  337000    284.40067   -49.248581    350.10406    34029          413 
  338000    295.88919   -48.639568    357.91266    34022          406 
  339000     287.4297   -52.131912    360.32695    34037          421 
  340000    304.71932   -57.650769    387.32771    34043          427 
  341000    296.21504    -53.25025    351.20509    34014          398 
  342000    282.69271   -56.033584    335.15743    34014          398 
  343000    313.37309   -58.439344    415.22252    34060          444 
  344000    281.55693   -59.552989    365.17019    34048          432 
  345000    301.12487    -52.45221    392.08561    34053          437 
  346000     317.8207   -54.887906    413.58362    34053          437 
  347000     287.9087   -57.786539    358.62575    34034          418 
  348000    296.97417   -59.408917    356.02479    34018          402 
  349000    287.12107   -53.881922    353.72945    34027          411 
  350000    305.27557   -57.033345    362.49751    34015          399 
  351000    288.94354   -52.994282    352.82439    34025          409 
  352000    273.94776   -42.360011     309.0055    33995          379 
  353000    280.64901   -42.149496    325.29575    34005          389 
  354000    310.04841   -47.380763     361.0281    34007          391 
  355000    298.73145   -52.184103    357.34005    34018          402 
  356000    281.49666   -54.355524    343.78936    34025          409 
  357000     305.7329   -58.900949     366.0898    34018          402 
  358000     293.5195   -54.552238    366.46083    34035          419 
  359000    286.67307   -54.553092    368.53438    34046          430 
  360000    301.15354    -50.18371    367.22284    34025          409 
  361000    302.95234   -54.088182    383.06893    34039          423 
  362000    302.71619   -48.778989    372.16035    34028          412 
  363000    300.68457   -55.064914    396.21848    34059          443 
  364000     307.6221   -51.386706    412.04795    34065          449 
  365000    302.01882   -50.530443    362.16062    34017          401 
  366000    291.49925   -50.766772    345.06802    34014          398 
  367000    293.21256   -39.863003    333.27524    33996          380 
  368000    313.14171   -48.682381     341.5356    33982          366 
  369000    294.63965   -45.847014     341.4766    34005          389 
  370000    298.85661   -52.628346     362.9861    34024          408 
  371000      320.806   -59.637469    403.49597    34038          422 
  372000    291.38209   -52.979579    354.14289    34024          408 
  373000    285.47643   -50.803047    353.54542    34030          414 
  374000    290.21028   -67.954443    354.28708    34026          410 
  375000    310.48259   -52.992709     388.2935    34036          420 
  376000     298.6132   -52.619126    356.31277    34016          400 
  377000    290.12407   -58.235109    357.01138    34027          411 
  378000     296.6479   -53.275913    383.43036    34050          434 
  379000    298.15615   -47.844113    375.87939    34039          423 
  380000     277.8904   -50.986455    345.61795    34033          417 
  381000    288.62976   -48.750907    359.56287    34033          417 
  382000    321.42639   -52.768633    396.60198    34030          414 
  383000    290.16187   -52.181756    372.64735    34047          431 
  384000    254.45111   -54.887489    327.13682    34048          432 
  385000    286.38333   -55.964183    350.77681    34026          410 
  386000      288.098   -53.937471    358.71391    34034          418 
  387000    281.81815   -51.074919    359.88065    34045          429 
  388000    282.18757   -46.869448    353.54737    34035          419 
  389000     292.8274   -55.425641    349.14791    34016          400 
  390000     304.3808   -54.598806     379.0228    34034          418 
  391000    311.70916   -52.213612     365.7608    34010          394 
  392000    296.68492   -53.651437    356.69815    34020          404 
  393000    305.82026   -52.603398     371.9996    34025          409 
  394000    291.61763   -62.802489    356.43694    34027          411 
  395000    297.23184   -54.244433    368.32769    34031          415 
  396000    287.43574   -56.852305    372.00214    34051          435 
  397000    274.28725   -50.335177    364.49423    34062          446 
  398000    301.45019   -48.596846    411.47202    34074          458 
  399000    294.87924   -54.877959    366.94856    34032          416 
  400000     267.1093   -50.751205    335.79548    34038          422 
  401000    302.30375   -54.140535     373.9621    34029          413 
  402000    307.40885   -57.785866     403.8644    34057          441 
  403000     297.6735    -59.62821     397.6717    34065          449 
  404000    303.55567   -52.182035    408.78326    34068          452 
  405000     291.0348   -53.232813    367.55313    34040          424 
  406000    286.90946   -54.685773    351.34065    34025          409 
  407000    303.07776   -55.333588    344.71306    33998          382 
  408000    302.67389   -48.987974    368.43502    34025          409 
  409000    270.56055   -46.702609    329.96813    34024          408 
  410000    297.33318   -45.493259    380.64714    34044          428 
  411000    276.04009   -61.454676    338.32931    34028          412 
  412000    322.42071   -53.399369    397.90979    34031          415 
  413000    266.25637   -57.322097    338.38606    34043          427 
  414000    292.53339   -58.622335    386.12859    34055          439 
  415000    274.84029   -59.098443    330.03833    34018          402 
  416000     291.0613   -60.004046    355.49518    34025          409 
  417000    292.35487   -57.441917    395.06506    34069          453 
  418000    287.74744   -62.374289     365.9622    34043          427 
  419000    301.10137     -61.2165    384.57253    34044          428 
  420000    276.33042   -58.783279    344.51878    34035          419 
  421000    288.94122   -51.812015    333.87662    34004          388 
  422000    310.26548   -52.029903    363.92826    34010          394 
  423000     284.6721   -58.249254    342.81567    34021          405 
  424000    284.84323   -59.928509    354.72824    34034          418 
  425000    278.26442   -58.944277    353.97615    34043          427 
  426000     281.2767   -60.198885     372.8823    34061          445 
  427000      282.679   -66.020389    414.21823    34108          492 
  428000    298.53081   -65.340249    424.98364    34093          477 
  429000    292.25381   -53.969164    383.46469    34057          441 
  430000    284.67994   -52.841283    358.50462    34038          422 
  431000    293.05655   -53.778026    351.28112    34019          403 
  432000    284.07679   -55.930116    381.37324    34066          450 
  433000     280.5589   -65.261939    364.99789    34051          435 
  434000    300.29795   -60.436346    363.59046    34022          406 
  435000    294.92263   -49.753226    363.06128    34028          412 
  436000    284.07675   -50.515575    351.24704    34031          415 
  437000    295.56078     -54.5326    380.65607    34049          433 
  438000    277.38542   -57.735856    359.20398    34049          433 
  439000    301.48769   -62.446642    396.51778    34058          442 
  440000     298.6357   -50.402745    376.52464    34039          423 
  441000    291.70222   -45.288311    368.52684    34040          424 
  442000    273.73178   -53.222961    357.45192    34051          435 
  443000    293.80334   -47.124172    350.98413    34016          400 
  444000    306.96628   -48.618695     356.2701    34006          390 
  445000    288.30391   -47.206125    334.06168    34005          389 
  446000    301.81336   -48.680929    355.01191    34011          395 
  447000    302.75233   -45.644035    350.36969    34004          388 
  448000    288.79526    -42.60962     346.8119    34019          403 
  449000     323.4165   -46.605165    413.84946    34046          430 
  450000    311.77086   -52.704663    388.34666    34034          418 
  451000    300.97215   -52.231996    363.70021    34021          405 
  452000    303.39881   -50.449368    389.35698    34046          430 
  453000    285.67688   -42.221445    345.60896    34022          406 
  454000    275.72522   -55.237893    333.81863    34022          406 
  455000    292.00362   -65.165716    389.47936    34063          447 
  456000    294.17143   -58.929618    373.20591    34042          426 
  457000     301.4206   -59.330008    365.80457    34024          408 
  458000    299.73848   -55.206213    372.08245    34033          417 
  459000    278.38001   -53.556915    372.79134    34066          450 
  460000    302.44178    -57.29273    363.51217    34020          404 
  461000    290.74011   -53.095733    353.97407    34025          409 
  462000     280.4324    -54.50969    334.15443    34015          399 
  463000    307.94775   -47.356903    350.77901    33997          381 
  464000    273.28169   -50.072446    309.02399    33996          380 
  465000    296.30988   -41.947119     354.3365    34016          400 
  466000    274.57693   -49.678592    344.25405    34037          421 
  467000    289.99975   -52.668677    359.99128    34032          416 
  468000     285.9845    -46.87947    358.21904    34037          421 
  469000     293.4798   -59.606935    357.19802    34025          409 
  470000    311.95854    -50.96194    406.36423    34053          437 
  471000     295.4319    -52.57756    362.87631    34028          412 
  472000    288.94963   -49.205262    365.60363    34041          425 
  473000    276.71412   -51.534619    376.84275    34073          457 
  474000    294.04329   -47.339122       327.96    33990          374 
  475000    283.93164   -49.710394    354.98823    34036          420 
  476000    313.69879   -51.280332    399.70192    34042          426 
  477000      283.609   -50.739411    358.44222    34040          424 
  478000    293.53134   -53.315102    369.26663    34037          421 
  479000    289.84238   -51.630791    365.73453    34040          424 
  480000    287.61298   -47.671186    333.37608    34002          386 
  481000    303.87255   -45.282944    310.14316    33959          343 
  482000    304.28563   -47.173461    334.96398    33986          370 
  483000    279.59682   -43.846816    334.98054    34018          402 
  484000    296.79588   -46.035738    351.20053    34011          395 
  485000    290.75742   -50.025276     353.1876    34024          408 
  486000    291.42279   -45.277177     336.6907    34002          386 
  487000    315.67972   -47.191937    346.72942    33985          369 
  488000    295.24715   -44.727488    357.09778    34022          406 
  489000     291.4546   -47.702222    361.92449    34033          417 
  490000    297.27626   -48.481557    357.47656    34020          404 
  491000    286.46808   -45.553238    331.03598    34004          388 
  492000    276.25009   -41.194887    322.61153    34008          392 
  493000    297.62747   -46.984753     376.5559    34041          425 
  494000    288.71039   -50.273196    342.07849    34013          397 
  495000    306.43319    -53.71023    369.04188    34020          404 
  496000    314.82932   -60.546394    389.49153    34032          416 
  497000    295.93731   -53.895754    365.89639    34031          415 
  498000    283.30731    -57.36886    354.36822    34033          417 
  499000    313.64929   -46.980363    385.31331    34028          412 
  500000    287.61403   -38.665029     325.9973    33996          380 
  501000    285.14508   -46.173842    307.06569    33978          362 
  502000    272.25518   -35.668533    315.28805    34005          389 
  503000    297.97076   -49.141116    378.79178    34041          425 
  504000    288.15368   -45.204413    362.53204    34038          422 
  505000    290.67835   -53.797144    359.78916    34031          415 
  506000    311.44621   -50.756027    372.12602    34017          401 
  507000    303.96353   -51.785643    379.91861    34035          419 
  508000    304.96429   -46.629698    359.30445    34012          396 
  509000    304.99065   -44.741231    361.02841    34014          398 
  510000    268.36223    -41.27365    349.46381    34053          437 
  511000    298.42631   -49.773331    371.01834    34034          418 
  512000     302.5655   -51.337687    381.02846    34039          423 
  513000    315.53177   -56.363343    387.78283    34028          412 
  514000    281.22821   -50.850115    345.51754    34029          413 
  515000    289.23279   -50.867229    317.17408    33984          368 
  516000    313.93527   -43.804414    363.81667    34005          389 
  517000    313.73112   -48.496185    369.73651    34009          393 
  518000    296.75401   -54.148199    371.50343    34036          420 
  519000    283.32049   -54.983871    354.60568    34036          420 
  520000    283.32759   -61.794347    365.93492    34049          433 
  521000     316.7603   -51.530354    393.81783    34033          417 
  522000     306.3352   -59.746048    388.21996    34042          426 
  523000     291.7648   -53.405541    380.29083    34054          438 
  524000    298.60879   -52.502454    358.01922    34019          403 
  525000    296.67918   -46.955896    349.98905    34011          395 
  526000    277.66923   -45.985583    343.99976    34031          415 
  527000    287.41236   -49.234794    357.89981    34030          414 
  528000    293.22691    -46.89289    342.65059    34009          393 
  529000     307.5445   -47.774225    378.67826    34029          413 
  530000    286.06236   -48.936991    329.47479    34003          387 
  531000    296.03879   -51.555291    366.77285    34032          416 
  532000    312.02718   -47.810729    369.58979    34012          396 
  533000    272.19196   -45.275573    332.36424    34026          410 
  534000    298.00959   -46.316434    350.00171    34010          394 
  535000    283.96481   -39.562934    297.74286    33967          351 
  536000    288.18696   -45.868622    339.01519    34010          394 
  537000    305.97724   -56.599218    384.02119    34037          421 
  538000    285.46588   -56.048112    356.45294    34035          419 
  539000    284.68708   -60.333162    330.72561    34004          388 
  540000    299.16788   -53.964737    342.68193    33999          383 
  541000    291.82349   -56.773233    351.87497    34021          405 
  542000    282.50464    -54.18874    324.49698    34002          386 
  543000    293.94235    -50.13199     361.7061    34029          413 
  544000    281.89285   -54.070311    344.74335    34027          411 
  545000    306.12392   -48.020375    369.79981    34022          406 
  546000    278.69747   -50.518649    322.56946    34005          389 
  547000    301.80316   -51.737051    365.55497    34023          407 
  548000    283.05691   -62.427302    374.41766    34060          444 
  549000    286.24977   -57.514367    374.20289    34055          439 
  550000    321.11776   -49.183372    375.75899    34009          393 
  551000     278.6808   -47.823755    334.57164    34018          402 
  552000    282.13937   -46.873634    332.54933    34012          396 
  553000    291.86838   -41.117504    362.22386    34032          416 
  554000    295.20777   -47.848196    343.88637    34007          391 
  555000    302.57844   -47.809894    336.82636    33990          374 
  556000    307.22349   -46.528154    348.51622    33997          381 
  557000    298.85629   -49.409144    331.72588    33988          372 
  558000    285.17173   -47.424839    339.34888    34016          400 
  559000     279.7944   -51.679763    338.77487    34023          407 
  560000    290.57203   -49.275931    360.66198    34033          417 
  561000    300.11982   -45.853553    337.63106    33993          377 
  562000    289.28541   -43.212604    355.77452    34028          412 
  563000    262.83466   -56.209507    315.61851    34018          402 
  564000    293.97275   -56.531131      385.024    34056          440 
  565000     280.4605   -57.421619    385.56869    34077          461 
  566000    311.90725   -54.778566    395.23757    34042          426 
  567000     308.0885   -56.524369    395.80118    34046          430 
  568000    267.87883   -59.052193    311.66901    34007          391 
  569000    283.86015   -52.559996    327.12919    34002          386 
  570000    283.72145   -54.013481    367.59175    34050          434 
  571000    307.34062   -53.865202    394.76626    34047          431 
  572000    305.64079   -51.158355    396.56196    34052          436 
  573000    286.05216   -47.070093     354.0886    34031          415 
  574000    288.19606    -48.27759    353.16984    34028          412 
  575000    302.68339   -52.203723    339.39387    33993          377 
  576000    269.43551   -54.086548    353.02299    34054          438 
  577000    301.99636   -61.770927    381.46285    34040          424 
  578000    283.64459   -62.717742     356.2916    34038          422 
  579000    284.43175   -59.145521    344.61388    34023          407 
  580000    277.13582   -59.087688    354.24176    34045          429 
  581000     297.1415   -56.154275     389.8663    34056          440 
  582000    275.11145   -55.009613    379.24362    34079          463 
  583000     293.4594   -55.772667    359.26311    34027          411 
  584000    286.50418    -56.16545    342.30229    34017          401 
  585000    298.17853    -55.18737    352.43191    34013          397 
  586000    301.20798   -60.593498      374.364    34033          417 
  587000     287.8053   -53.013677    338.94221    34011          395 
  588000    294.89177   -55.887529    353.54968    34018          402 
  589000    293.87611    -64.73925    343.72098    34009          393 
  590000    296.07672   -64.609684    378.44649    34045          429 
  591000    302.98538   -68.999803    397.61889    34057          441 
  592000    304.19898   -54.000654    379.74189    34034          418 
  593000    288.98456   -53.508973    339.89187    34011          395 
  594000    290.49856   -47.873553    335.54202    34004          388 
  595000    313.99869   -54.269762    396.11826    34040          424 
  596000    282.18032   -56.917699    334.80464    34015          399 
  597000     289.7951   -59.280547    380.36002    34057          441 
  598000    288.37957   -64.528322    388.12592    34068          452 
  599000    291.03086   -64.641804    390.80033    34065          449 
  600000    299.29785   -59.724308    382.61838    34040          424 
  601000    308.79092   -61.955594    392.33672    34043          427 
  602000    282.54845   -60.760941    359.14431    34043          427 
  603000    298.88889   -52.504036       351.78    34010          394 
  604000      317.064   -56.433763    415.06137    34056          440 
  605000     302.8075   -54.819569    419.76385    34081          465 
  606000    293.49062   -68.697314    379.11949    34049          433 
  607000    294.39714   -59.052626    368.98431    34036          420 
  608000    290.53622   -60.436902    382.42818    34058          442 
  609000    288.71598   -54.760517     353.6942    34027          411 
  610000    294.85126   -49.329747    353.69664    34018          402 
  611000    307.17684   -45.636082    372.47066    34023          407 
  612000    308.02371   -43.930445    373.37734    34023          407 
  613000    293.77539   -44.387114    348.32075    34014          398 
  614000    279.59934   -40.260449     339.3996    34024          408 
  615000    306.31723   -55.062676    365.72759    34017          401 
  616000    302.71293   -44.785408    360.39647    34016          400 
  617000    298.44662   -52.220413    374.19984    34037          421 
  618000    269.26326    -54.11649    319.24497    34013          397 
  619000    306.62094    -45.55728    363.48865    34014          398 
  620000    323.54461   -47.424366    379.12326    34010          394 
  621000    308.95846   -54.290061     380.4809    34030          414 
  622000    263.95888   -47.050687    334.46408    34042          426 
  623000    318.97686   -49.664586     389.9737    34027          411 
  624000    280.75259   -39.612588    337.08687    34019          403 
  625000    305.65453   -39.431255    323.75138    33972          356 
  626000      316.402   -43.779716    344.63719    33981          365 
  627000    291.04425   -43.351915    328.29583    33995          379 
  628000    312.78602   -47.821222    370.35478    34014          398 
  629000    291.85077   -47.435621    337.33845    34003          387 
  630000    293.79206   -52.844139    369.62955    34038          422 
  631000    289.49599   -51.198413    333.66848    34003          387 
  632000     293.7149   -50.736716    377.71048    34047          431 
  633000      275.976   -50.965572    329.28764    34016          400 
  634000    293.51099   -58.831725    358.43135    34024          408 
  635000    300.81087   -53.316173    371.08948    34030          414 
  636000    297.29291   -56.901656    386.16208    34048          432 
  637000    280.66039   -54.774818     371.3841    34060          444 
  638000    296.62109   -55.915615    392.90145    34061          445 
  639000     293.6575   -54.905769    340.05197    34005          389 
  640000    277.92673   -49.401088    318.60149    34001          385 
  641000    284.22791   -58.634718    341.86752    34018          402 
  642000    298.97639   -55.017526    357.99017    34018          402 
  643000    270.20852   -56.492003    332.83763    34028          412 
  644000    292.67628   -55.749068    376.91801    34048          432 
  645000    293.14881   -57.431829    381.98158    34054          438 
  646000    328.36106   -58.240686    380.41741    34005          389 
  647000    291.42528   -55.302457    335.18068    34002          386 
  648000    306.85913   -52.051539    342.57684    33991          375 
  649000    306.35438   -50.057524    379.17013    34032          416 
  650000    301.02905   -55.648985    387.84975    34047          431 
  651000    293.46954   -52.438291    364.18193    34033          417 
  652000    281.07212   -43.514166    341.55133    34024          408 
  653000    301.97201   -51.954795     361.2181    34018          402 
  654000    316.20497   -59.423129    394.76135    34035          419 
  655000    293.17681   -51.146907    366.02707    34035          419 
  656000    314.97974   -52.379123    392.85895    34034          418 
  657000    289.52715   -58.497342    359.16394    34033          417 
  658000    313.17337   -60.123627    389.31985    34033          417 
  659000    288.02246   -58.548767    348.47142    34022          406 
  660000    288.85088   -61.795907    354.09009    34028          412 
  661000    300.76202   -62.328754    353.33124    34011          395 
  662000    304.41684   -56.351122    389.27196    34045          429 
  663000    281.35722    -53.72909    332.65307    34012          396 
  664000    284.91321   -56.705222    349.07966    34027          411 
  665000    294.13973   -53.242869     359.5333    34024          408 
  666000    286.70372    -45.96038    357.83217    34033          417 
  667000    286.91358   -53.729789    348.49941    34024          408 
  668000    313.91018   -62.283522     390.2138    34034          418 
  669000    298.11225    -54.11162    381.38533    34045          429 
  670000    311.05157   -54.101074    405.25933    34054          438 
  671000    298.27754   -49.806572     360.4173    34022          406 
  672000    281.05096    -57.20031    338.66309    34020          404 
  673000    281.67747   -53.502332    335.77135    34015          399 
  674000    303.43876   -51.932506     372.0592    34027          411 
  675000    294.65573   -56.244171    337.70131    33999          383 
  676000    289.05314   -48.248197    356.25298    34030          414 
  677000    283.76032   -49.784596    364.53163    34045          429 
  678000    288.59929   -43.959154    322.16447    33989          373 
  679000     296.0608   -54.716216     365.2615    34030          414 
  680000    280.70483    -58.56582    366.92211    34055          439 
  681000     266.1969   -49.565595    322.06134    34022          406 
  682000    291.31294    -55.74392    377.20998    34049          433 
  683000     289.7768   -55.737359    366.63208    34041          425 
  684000    303.50321   -63.172958    399.91246    34056          440 
  685000    296.44567   -66.969603    403.38657    34073          457 
  686000    273.36975   -59.652862    353.14442    34050          434 
  687000    290.97276   -56.058278    357.19321    34028          412 
  688000    299.06129   -53.317049    351.30238    34011          395 
  689000    293.49038   -47.976928    364.50231    34033          417 
  690000    282.18796   -60.779685    360.24713    34045          429 
  691000     293.8277   -58.004804    375.48773    34045          429 
  692000     306.8238   -54.841997    372.78513    34024          408 
  693000    317.56762   -53.700238    381.99544    34020          404 
  694000    261.13744   -54.382803    327.82984    34036          420 
  695000    300.16267    -57.20841    367.83084    34028          412 
  696000    289.34377   -62.390727    370.59225    34046          430 
  697000     285.3445   -60.664341    348.15369    34026          410 
  698000    312.23231   -61.718466    426.42694    34075          459 
  699000    297.74951   -60.097752    383.48135    34049          433 
  700000    282.46654   -52.164859    361.61786    34046          430 
  701000    313.25672   -50.091534    391.29668    34036          420 
  702000     278.3417   -50.251682    331.50829    34016          400 
  703000    313.04082   -47.305201    366.01378    34009          393 
  704000    296.45391   -52.174128    382.05381    34047          431 
  705000    292.94968   -56.197518    354.87494    34022          406 
  706000    295.84069   -56.783383    368.26552    34034          418 
  707000    270.38727   -65.453019    335.12911    34032          416 
  708000    301.09767   -51.011787    351.06814    34008          392 
  709000     294.9563   -56.319951     364.3896    34030          414 
  710000    286.68391   -57.001216    354.77013    34032          416 
  711000     305.2421    -50.71844    368.12884    34020          404 
  712000    302.25935   -51.208383    380.90673    34039          423 
  713000    284.35273   -55.386004    362.38952    34043          427 
  714000    298.63201   -56.943473    396.71585    34061          445 
  715000    293.69786   -57.637073    360.45483    34028          412 
  716000    308.67606    -52.92049    383.43919    34031          415 
  717000     287.5374    -45.62561    347.60773    34020          404 
  718000    275.74617   -47.648306    317.25206    34002          386 
  719000    306.52327   -46.757441    384.61775    34037          421 
  720000    304.40699   -57.218084    386.95788    34040          424 
  721000    284.54563   -58.547102    347.76565    34026          410 
  722000    257.70833   -53.857999    324.14734    34035          419 
  723000    284.29549   -52.331709    355.88657    34035          419 
  724000    302.00842   -48.022647    374.25236    34032          416 
  725000     290.3926   -53.511856    357.98589    34028          412 
  726000    279.22695   -44.350876    326.11223    34008          392 
  727000    277.12173   -44.823371    338.34223    34022          406 
  728000    307.48682   -44.841199    372.74954    34023          407 
  729000    302.48953   -46.081593    376.52013    34033          417 
  730000    268.64335   -44.411415    331.89106    34030          414 
  731000    311.82108   -48.918788    421.39955    34069          453 
  732000    278.17944   -45.107916    324.95496    34007          391 
  733000    282.38322   -56.055895    364.27058    34049          433 
  734000    306.97644   -52.813915     393.5731    34047          431 
  735000    291.11664   -48.247803    333.31178    34000          384 
  736000    302.58959    -52.56531    372.06783    34026          410 
  737000    289.54089   -50.337907    357.50688    34031          415 
  738000    293.85009    -48.60731    349.23848    34015          399 
  739000    299.12686   -54.709281    380.19243    34043          427 
  740000    299.53372   -45.953523    381.46988    34044          428 
  741000    280.53393   -48.897822    364.74613    34052          436 
  742000     284.7586   -43.646371    370.46387    34053          437 
  743000    279.29401   -56.341309    359.80917    34049          433 
  744000    305.72674   -46.715731    368.36205    34021          405 
  745000    278.28139   -50.322995    331.70871    34016          400 
  746000    293.47939   -49.438307    358.48017    34025          409 
  747000    287.96922   -51.868383    353.19504    34028          412 
  748000    271.43615    -52.31325    337.28941    34033          417 
  749000    282.90573   -54.175539     347.6698    34028          412 
  750000    299.09473   -40.861949    359.58873    34020          404 
  751000    284.96524   -50.049234    335.49836    34011          395 
  752000    286.47561   -51.127109    353.74117    34029          413 
  753000    288.78429   -50.769272    354.70532    34029          413 
  754000    299.67933   -45.491688    359.54378    34018          402 
  755000    319.59022    -44.20728    376.35662    34012          396 
  756000    283.11915   -45.440037     346.7343    34026          410 
  757000    264.97043   -50.002011    306.22236    34004          388 
  758000    292.36242   -46.632971    335.06619    34001          385 
  759000    288.40659   -47.256641    342.22077    34015          399 
  760000    322.26336   -41.985343    360.62544    33991          375 
  761000     302.8872   -49.557429    354.23216    34009          393 
  762000    296.67849    -63.79711    369.21609    34034          418 
  763000    276.12873   -54.584608    342.81942    34033          417 
  764000    286.79236   -52.750383    358.45715    34035          419 
  765000    283.07282    -54.98712    337.88902    34017          401 
  766000    292.35784   -55.376685    353.00748    34021          405 
  767000    286.43179   -53.124978      339.173    34014          398 
  768000    292.20086   -55.507892    373.77644    34045          429 
  769000    302.31619   -52.012306    389.82922    34049          433 
  770000    294.71104    -54.52037    363.68379    34029          413 
  771000    293.74353   -49.915617    340.29362    34005          389 
  772000    299.19188   -55.954017     355.1549    34014          398 
  773000    280.47052   -48.088511    347.62456    34031          415 
  774000     301.9788   -51.032546    378.37843    34037          421 
  775000    293.81976   -50.384609    347.14524    34013          397 
  776000    293.94273   -56.131173    384.41856    34054          438 
  777000    310.98708   -57.216592    376.67544    34023          407 
  778000    289.82739   -55.725199    357.22795    34030          414 
  779000    294.43968   -50.791025    386.29988    34057          441 
  780000     294.1547   -49.170858    349.13087    34015          399 
  781000    277.15453   -53.095524    325.79604    34010          394 
  782000    310.46941   -46.036711    354.81105    34000          384 
  783000     305.6346   -47.352501    360.94632    34013          397 
  784000    295.86637    -44.65103    319.26503    33979          363 
  785000    291.11367   -47.532687    320.66355    33986          370 
  786000    298.99001   -49.528826    376.58303    34039          423 
  787000    276.63635   -48.931404    326.16057    34011          395 
  788000    298.61227   -52.066725    389.63116    34052          436 
  789000    305.86748   -57.615246    377.87575    34031          415 
  790000    298.34871   -53.908863     353.5952    34014          398 
  791000    307.71964   -51.478414    386.84713    34038          422 
  792000    299.53098    -44.48825     367.3336    34028          412 
  793000     311.6811   -47.031374    369.92215    34015          399 
  794000    311.45295   -54.315108    376.99505    34023          407 
  795000    285.83927    -46.30377    329.61023    34001          385 
  796000    314.06711   -50.332265    375.52738    34016          400 
  797000    287.94603   -50.524505    344.75201    34018          402 
  798000    292.12443   -55.556171    358.46069    34028          412 
  799000    305.21643   -48.838178    356.05123    34008          392 
  800000    283.31908   -50.215234    341.27031    34021          405 
  801000    299.27736    -52.78331    376.51513    34038          422 
  802000    276.51891   -53.378892    342.06984    34031          415 
  803000    273.27154   -50.126126    329.64978    34021          405 
  804000    308.39677   -48.560604     352.4971    34000          384 
  805000    304.93391   -47.657531    351.09335    34002          386 
  806000    299.33854   -43.066177    361.51501    34021          405 
  807000    283.85305   -47.146119    346.94411    34027          411 
  808000       280.21   -48.623426    345.19392    34029          413 
  809000    302.83911   -55.852164    401.94464    34061          445 
  810000    278.46645   -51.866953    340.06882    34026          410 
  811000    270.36062   -50.432517    354.01111    34056          440 
  812000    290.25333   -52.976763    374.90785    34050          434 
  813000    311.22222    -53.57202     395.7571    34043          427 
  814000    278.44933   -54.720956    326.45305    34008          392 
  815000    300.80003   -55.324797    361.09962    34019          403 
  816000    295.62406   -54.443114    361.93547    34027          411 
  817000     281.0462   -64.483078    349.43672    34034          418 
  818000    303.83746   -56.439129    374.46304    34030          414 
  819000    304.73137   -54.602374    379.82627    34035          419 
  820000    290.03932   -52.803243    362.82053    34035          419 
  821000    285.65928   -49.513797    332.43787    34007          391 
  822000    293.81981   -54.543795    384.72312    34055          439 
  823000     284.2975   -49.103728     353.2227    34033          417 
  824000     306.4243   -56.565789    398.24304    34052          436 
  825000    288.45093   -46.871425    361.16745    34036          420 
  826000    301.49586   -47.288852    364.94077    34023          407 
  827000    286.32489   -58.104005    372.39675    34053          437 
  828000    282.74638   -48.271108    374.58253    34060          444 
  829000    292.66256   -57.942056    361.78928    34030          414 
  830000    290.80962   -52.260496    343.90802    34013          397 
  831000    288.80315   -51.658263    351.67577    34025          409 
  832000    300.05013    -54.53699    365.56733    34025          409 
  833000    274.93756   -50.710093    345.95266    34038          422 
  834000    294.69674   -52.220374    361.28813    34028          412 
  835000    304.32099   -53.020795    376.95592    34031          415 
  836000    293.16779   -52.806921    354.76878    34022          406 
  837000    298.81424    -44.57288    369.78538    34032          416 
  838000      303.929   -49.112944    368.32824    34022          406 
  839000    284.69928   -44.781431    341.72716    34019          403 
  840000    284.46915   -45.667797    356.69221    34037          421 
  841000    284.27898   -41.317153    356.12804    34035          419 
  842000    298.86523   -58.130496    367.27153    34028          412 
  843000    294.08966   -54.969584    365.50746    34033          417 
  844000    295.72557   -55.521282    378.06134    34039          423 
  845000     294.8961   -56.261796     354.5208    34018          402 
  846000    299.95842   -56.719153    360.76006    34020          404 
  847000    272.55448   -66.548072    337.64948    34032          416 
  848000    301.38952   -61.594085    371.25795    34030          414 
  849000    288.10035   -64.906102    335.25029    34007          391 
  850000    272.22167   -48.446464    307.92142    33996          380 
  851000    303.59572   -54.371942    395.54227    34053          437 
  852000    304.78147    -47.76664    352.14141    34002          386 
  853000    300.56649   -51.119826    348.77463    34005          389 
  854000     306.7785   -48.008164    392.70272    34046          430 
  855000    269.26905   -46.575498    339.62674    34039          423 
  856000    290.15661    -47.64474    369.83329    34044          428 
  857000    293.88542   -47.849207    361.21111    34028          412 
  858000    274.82031   -47.786875    326.48449    34015          399 
  859000    295.70327   -49.062152    336.45148    33998          382 
  860000    288.43574   -46.702589    350.12829    34024          408 
  861000    286.79776   -48.064482    317.30616    33988          372 
  862000     289.6769   -49.014312    340.86722    34009          393 
  863000    288.63059   -53.975236    364.65128    34040          424 
  864000    286.06806   -63.051964    374.66055    34054          438 
  865000    302.57021   -54.253688    384.25221    34042          426 
  866000    296.61209   -52.103967    390.34883    34057          441 
  867000    292.79424   -50.585925    381.78133    34054          438 
  868000    277.63295   -57.293492    372.40192    34064          448 
  869000     289.6614   -54.635698    365.67507    34037          421 
  870000    291.38232   -51.706217    351.16446    34018          402 
  871000    294.33745   -53.198628    361.90673    34028          412 
  872000     270.2408    -57.52715    353.22963    34055          439 
  873000    295.46938   -51.039658    372.05163    34039          423 
  874000    300.75353   -54.951537    384.89925    34046          430 
  875000    291.66874   -48.138709    367.84131    34036          420 
  876000    264.46409   -51.731089    321.40687    34022          406 
  877000    309.69508   -59.338813    398.26005    34046          430 
  878000    276.25125   -48.235677    352.93951    34045          429 
  879000    295.13799   -53.220374    355.53935    34018          402 
  880000    296.06956   -55.971175    358.68803    34022          406 
  881000    285.00008   -55.761769    361.01989    34041          425 
  882000    309.78328   -55.350676     403.9148    34054          438 
  883000    291.07583   -53.884654    351.65409    34022          406 
  884000    296.72501   -54.639986    376.21957    34042          426 
  885000    277.60315   -56.142135    365.19156    34058          442 
  886000     294.8687   -54.476904    374.92188    34043          427 
  887000    308.81059   -51.593584    381.72744    34031          415 
  888000    282.88351   -50.507352    366.01285    34050          434 
  889000    300.35485   -54.404348    366.30759    34026          410 
  890000    284.42193   -49.392769    322.15895    33996          380 
  891000     280.8838   -51.252658    364.02874    34051          435 
  892000    296.02714   -44.989833    354.82404    34019          403 
  893000    311.49482   -47.164777    370.75702    34015          399 
  894000    289.32501   -45.598428    353.01538    34026          410 
  895000    264.84673   -52.428522    319.35205    34020          404 
  896000    302.35298   -53.525218     364.8074    34021          405 
  897000    288.10202    -48.78941     351.9831    34026          410 
  898000    307.52202   -54.870557    358.42869    34007          391 
  899000    285.82489   -52.141674    345.42774    34022          406 
  900000    295.90659   -54.936025    384.66932    34050          434 
  901000    298.99956   -51.881456    371.34988    34033          417 
  902000    296.23637   -48.018566    363.80602    34028          412 
  903000    305.93754   -57.018851    385.02179    34038          422 
  904000    293.63067   -51.147604    377.86485    34048          432 
  905000     279.4084   -48.554841    348.20201    34035          419 
  906000    284.84099   -52.176963    356.41401    34036          420 
  907000    286.74932   -44.534967    349.30632    34025          409 
  908000    285.38573   -50.158935    339.07641    34015          399 
  909000    300.07026   -54.566877    357.93208    34017          401 
  910000    289.53112   -41.345438    335.89342    34006          390 
  911000    286.65976   -50.809264    360.18868    34038          422 
  912000    305.75519   -50.708091    374.11961    34027          411 
  913000    299.28987   -47.574091    387.25251    34051          435 
  914000    299.40197   -47.859259    383.00619    34046          430 
  915000    275.04268   -50.543327    350.81121    34043          427 
  916000    297.14866   -41.993755    358.17098    34019          403 
  917000    292.68669   -45.648314    357.36416    34026          410 
  918000    286.25731   -45.699962    343.43878    34019          403 
  919000    281.02046   -43.768934     330.6678    34010          394 
  920000    300.25053   -43.635557    353.17696    34010          394 
  921000    287.52278   -47.450341     325.0178    33996          380 
  922000    291.08626   -49.686075    349.43653    34019          403 
  923000    287.68834   -48.096534    334.54787    34007          391 
  924000    300.36471   -57.491207    394.50076    34056          440 
  925000     298.3105   -65.242588     400.4633    34067          451 
  926000    289.94539   -56.469002    376.96923    34053          437 
  927000    291.59753   -59.327095    352.23258    34022          406 
  928000    286.52332   -58.730571    337.07908    34011          395 
  929000    288.41146   -57.376126    343.95301    34016          400 
  930000    301.29963   -54.336046    377.36722    34036          420 
  931000    298.32753   -48.702832    370.14026    34032          416 
  932000    310.47929   -53.826746    407.82256    34056          440 
  933000    297.83828   -47.448741    352.12862    34013          397 
  934000    287.26183    -56.31648    334.72451    34006          390 
  935000    290.64783   -54.874122    378.73379    34054          438 
  936000    306.13052    -53.51129    403.92444    34059          443 
  937000    290.77627   -56.946078    374.32083    34048          432 
  938000    291.57592   -68.076338    381.68517    34055          439 
  939000    315.82859   -58.162292    384.85101    34025          409 
  940000    283.34224   -51.147067    338.06903    34017          401 
  941000    279.94482   -46.575985    342.53634    34026          410 
  942000    281.88439   -55.243803     370.0574    34055          439 
  943000    301.59139   -49.421169    405.59438    34067          451 
  944000    283.21997   -51.479231    363.09926    34044          428 
  945000    282.57984   -58.513788    334.09225    34012          396 
  946000    290.99725   -56.160886    354.36122    34025          409 
  947000    311.44674   -51.067587    377.46901    34023          407 
  948000    281.39898   -46.994894    308.05307    33984          368 
  949000    295.97871   -53.112159    355.38187    34019          403 
  950000    297.62556   -55.795167     366.9412    34030          414 
  951000    304.99465   -59.481082    400.53159    34056          440 
  952000    297.69728   -63.957391    397.51715    34064          448 
  953000    283.21902   -51.841988    370.92367    34055          439 
  954000     282.8048   -52.759692     351.6953    34032          416 
  955000    310.53852   -43.021238    376.68321    34023          407 
  956000    286.54965   -51.235659    351.89377    34028          412 
  957000    297.42106   -49.506144    357.70072    34018          402 
  958000    290.92562   -49.096839    364.59967    34037          421 
  959000     292.5354   -47.423051    359.40939    34028          412 
  960000    305.46398   -51.862204    394.41554    34050          434 
  961000     290.2366   -52.617498     367.4247    34040          424 
  962000    302.18146   -53.365379    382.03857    34041          425 
  963000    290.18612   -45.777376    354.66788    34026          410 
  964000    296.37154   -46.677495    353.63156    34014          398 
  965000    280.63113   -49.553398    342.58049    34023          407 
  966000    293.14452   -50.717168    316.52327    33978          362 
  967000    298.51204   -55.057223      346.638    34005          389 
  968000    293.79618   -52.673467    361.72926    34029          413 
  969000    279.81624   -61.211228    347.08808    34031          415 
  970000    295.15858   -48.802778    350.47759    34014          398 
  971000    311.73176   -59.790217    385.01346    34031          415 
  972000     303.3854   -55.308322    376.33869    34033          417 
  973000    285.17714   -58.048833    351.66937    34030          414 
  974000    282.84562   -50.603359    344.17997    34024          408 
  975000    302.77333   -57.272212    380.67457    34038          422 
  976000      301.534   -63.897066    383.39407    34042          426 
  977000    304.64839   -64.283717    394.99945    34051          435 
  978000    300.33114   -50.385659    366.40523    34025          409 
  979000    281.69925   -50.206848    343.16915    34025          409 
  980000    310.95774   -57.650895    374.61018    34021          405 
  981000    309.62249   -46.339345    390.42721    34039          423 
  982000     296.8087   -54.492208    351.07979    34012          396 
  983000    287.65948   -52.283627    350.13239    34024          408 
  984000    301.20336   -58.539065    386.17204    34045          429 
  985000     313.6524   -54.885633    377.32115    34020          404 
  986000     305.1006   -65.633102    417.72316    34075          459 
  987000    296.45818   -61.913444    409.87029    34080          464 
  988000    277.68811   -60.672531    376.75292    34071          455 
  989000    283.09613   -51.123005    351.49138    34033          417 
  990000    295.00339   -50.759463    350.56478    34012          396 
  991000    305.82814   -49.914445    346.46216    33997          381 
  992000    302.24993   -48.536341    370.54081    34026          410 
  993000    297.99699      -54.556    377.83707    34042          426 
  994000    303.53034   -51.920944     384.5567    34042          426 
  995000    278.47196   -54.314506    342.73661    34029          413 
  996000     292.7462   -51.727191    364.07625    34034          418 
  997000    311.83932   -46.889177    376.47482    34021          405 
  998000    282.39042   -44.566351    346.33653    34028          412 
  999000    299.71066   -45.893477    353.78626    34012          396 
 1000000    281.91015   -43.881252     325.3076    34003          387 
Loop time of 10946.4 on 5 procs for 1000000 steps with 34003 atoms

Performance: 7.893 ns/day, 3.041 hours/ns, 91.355 timesteps/s
99.4% CPU use with 5 MPI tasks x no OpenMP threads

MPI task timing breakdown:
Section |  min time  |  avg time  |  max time  |%varavg| %total
---------------------------------------------------------------
Pair    | 224.77     | 307.84     | 341.27     | 240.2 |  2.81
Neigh   | 3838.1     | 6083.1     | 6973.4     |1458.9 | 55.57
Comm    | 693.86     | 1477.5     | 3912.7     |3214.0 | 13.50
Output  | 0.19584    | 0.20263    | 0.22807    |   2.8 |  0.00
Modify  | 2788.9     | 2927.5     | 3133.2     | 286.3 | 26.74
Other   |            | 150.2      |            |       |  1.37

Nlocal:    6800.6 ave 6937 max 6696 min
Histogram: 1 0 1 1 0 1 0 0 0 1
Nghost:    17257.8 ave 17568 max 17099 min
Histogram: 2 0 1 0 1 0 0 0 0 1
Neighs:    10857.4 ave 13012 max 9472 min
Histogram: 1 2 0 0 0 0 0 1 0 1

Total # of neighbors = 54287
Ave neighs/atom = 1.59654
Neighbor list builds = 47220
Dangerous builds = 0

compute		pe ggcmc pe/atom
variable	      x atom c_pe

compute         layers ggcmc chunk/atom bin/1d z lower 0.1 units box bound z -40 40

fix		4 ggcmc ave/chunk 10 100 1000 layers v_x file profile.density
run               3000000
Per MPI rank memory allocation (min/avg/max) = 6.995 | 6.998 | 7.007 Mbytes
Step c_mtem PotEng KinEng Atoms v_nH2 
 1000000    281.91015   -43.881252     325.3076    34003          387 
 1001000    290.59544   -46.272258     344.6184    34013          397 
 1002000    320.46523   -48.464921    391.46599    34026          410 
 1003000    299.05795   -46.100257    351.36164    34011          395 
 1004000    313.83342   -51.140658    384.83367    34027          411 
 1005000    269.89029   -53.518808    366.43626    34070          454 
 1006000    305.23885   -61.091618    384.98393    34039          423 
 1007000    301.26678   -58.878605    382.03948    34042          426 
 1008000    305.96098   -44.577019    392.98796    34047          431 
 1009000    281.27828   -54.372372    339.02811    34020          404 
 1010000    293.40986   -49.209678    391.54361    34063          447 
 1011000    286.77263    -51.90978    370.07411    34049          433 
 1012000    282.47951   -57.992765    377.51483    34063          447 
 1013000    307.52158    -51.15855    361.22547    34011          395 
 1014000    280.65946    -47.90047    310.24859    33987          371 
 1015000    294.54746   -51.900447    362.15291    34029          413 
 1016000    283.09943   -51.904899    356.34286    34038          422 
 1017000     294.1793   -49.603264    382.41438    34053          437 
 1018000    288.93399   -54.538772    371.88915    34048          432 
 1019000    290.28127   -59.337317    383.56985    34059          443 
 1020000    275.63036   -56.204536    345.60694    34037          421 
 1021000    299.49306   -54.023307     376.9428    34037          421 
 1022000    295.99662   -52.445251    360.34845    34023          407 
 1023000    289.34412   -51.286188    381.43231    34059          443 
 1024000     291.3646   -47.694512    360.11733    34030          414 
 1025000    315.42405   -56.697088    356.67026    33996          380 
 1026000    313.30287   -57.677922    391.22128    34034          418 
 1027000    303.60156   -56.195643    399.87184    34058          442 
 1028000    301.78577   -57.845521    362.58609    34019          403 
 1029000    318.98632   -58.689622    389.17686    34026          410 
 1030000    296.97485    -57.44538    382.93309    34048          432 
 1031000    308.81253   -53.244071    386.78579    34037          421 
 1032000    295.30226   -53.008084    362.91352    34029          413 
 1033000     322.4815   -45.954849    371.49008    34003          387 
 1034000    283.71574   -53.662035    345.18125    34025          409 
 1035000    270.47284   -51.454581    344.38146    34043          427 
 1036000    289.74108   -45.814942    357.70947    34029          413 
 1037000    287.15607   -55.505939    345.60881    34020          404 
 1038000    299.10828   -53.132923    357.53475    34017          401 
 1039000    308.41499   -51.052471    376.19011    34026          410 
 1040000    292.33754   -49.373437    344.79548    34011          395 
 1041000    309.22343   -49.177277    369.21201    34017          401 
 1042000    285.28173   -54.024668    335.93702    34012          396 
 1043000    280.16644   -50.696051     357.1522    34044          428 
 1044000    293.14414   -53.662968    346.00756    34012          396 
 1045000    280.64431   -49.150094    361.98978    34049          433 
 1046000    294.02768   -44.283605    351.79796    34018          402 
 1047000    287.41472   -41.043075    353.65724    34029          413 
 1048000    263.76671   -49.819519    347.05901    34057          441 
 1049000    282.57983   -43.511281    330.81148    34009          393 
 1050000    287.09046   -44.795352    326.71443    33997          381 
 1051000    263.81447    -39.46203    285.30386    33979          363 
 1052000    287.00443   -38.130666    355.73608    34029          413 
 1053000    307.76641   -46.656118    390.68887    34038          422 
 1054000    289.00392   -48.338364    357.38096    34030          414 
 1055000    309.81942   -53.016637    370.42739    34018          402 
 1056000    298.16898   -57.326605    364.90345    34027          411 
 1057000    291.62333   -52.101742    346.62068    34015          399 
 1058000    298.43494   -54.200452    352.32526    34013          397 
 1059000    284.63409   -45.123203    330.39445    34005          389 
 1060000    285.73763    -51.76372     352.2978    34030          414 
 1061000    291.97162   -49.348383    362.20485    34032          416 
 1062000    294.10072   -44.777327    351.89386    34017          401 
 1063000     279.3338    -51.07736    342.77729    34028          412 
 1064000    282.28822   -51.691299    355.89624    34038          422 
 1065000    310.42195   -57.672627    376.52456    34023          407 
 1066000    300.96583   -50.723819    361.68526    34019          403 
 1067000    294.31914   -55.067666     360.9929    34028          412 
 1068000    299.47164   -63.533993    391.53198    34055          439 
 1069000    291.44421   -62.133668     382.5277    34054          438 
 1070000    302.21589   -60.679021     420.2832    34083          467 
 1071000    299.73312   -53.498498    354.95213    34014          398 
 1072000    291.20297   -63.251035    364.94019    34037          421 
 1073000    295.85431     -52.1503     367.0946    34031          415 
 1074000    295.29191   -61.562324     367.9709    34033          417 
 1075000    291.31491   -59.532051     377.7216    34051          435 
 1076000    285.09354   -61.332928    349.33317    34028          412 
 1077000    267.80046   -61.835479    345.80538    34049          433 
 1078000    291.25698    -68.24322    366.98111    34039          423 
 1079000    275.41743   -59.770605    354.65511    34048          432 
 1080000    306.32472   -63.602795    410.40442    34066          450 
 1081000     305.9582   -64.538384    397.42454    34051          435 
 1082000    300.31024   -66.945295    375.91759    34035          419 
 1083000    266.80328   -57.400737     312.9404    34010          394 
 1084000    292.49609    -56.82045    369.34133    34040          424 
 1085000    296.07516   -62.558377    356.85165    34021          405 
 1086000    298.49135   -61.533874    376.53873    34040          424 
 1087000    290.79925   -60.394115    366.01358    34039          423 
 1088000    289.46367   -55.806865    364.42724    34038          422 
 1089000    314.70229   -56.004646    393.74475    34036          420 
 1090000    299.41014   -55.747784    380.78117    34043          427 
 1091000    289.68113   -57.323181    391.42165    34070          454 
 1092000    279.86216   -65.451955    363.24931    34052          436 
 1093000    287.60194   -51.307985    352.87372    34028          412 
 1094000     311.0832   -54.925113    361.91761    34007          391 
 1095000    305.85503   -53.979522    396.32695    34051          435 
 1096000     293.2765   -54.695673    394.37968    34067          451 
 1097000    282.54794   -51.686009    348.00678    34030          414 
 1098000    305.30942   -49.566431    387.09869    34042          426 
 1099000    284.94072   -52.536365    347.55407    34026          410 
 1100000    291.66914   -45.794596    332.36141    33997          381 
 1101000    289.69108   -49.693356    349.41957    34021          405 
 1102000    289.12626   -55.583409    358.43266    34032          416 
 1103000    303.34509   -60.786125    392.60009    34051          435 
 1104000    275.18221   -60.869573    324.31221    34012          396 
 1105000    277.85112   -56.918594    352.50964    34041          425 
 1106000    281.82834   -57.947002    368.30233    34055          439 
 1107000     298.1172   -58.666189    358.58395    34020          404 
 1108000    285.56064   -52.188921    370.41288    34050          434 
 1109000    284.66616   -51.008922    344.76194    34023          407 
 1110000    300.02451   -40.917118    384.82498    34047          431 
 1111000    295.07936   -54.412946    363.59395    34030          414 
 1112000    277.00984   -52.427904    337.15333    34025          409 
 1113000     292.1307   -57.878703    362.93307    34033          417 
 1114000    297.34644   -55.294599      379.141    34044          428 
 1115000    294.05937    -58.16934     374.0784    34043          427 
 1116000    308.72332   -58.830263    381.02709    34030          414 
 1117000    286.59627   -57.831338    358.21014    34035          419 
 1118000    292.82314     -44.2111     367.6612    34038          422 
 1119000    297.23789   -52.607254    393.22647    34060          444 
 1120000    298.99516   -50.609943    382.20625    34045          429 
 1121000    313.41447   -43.962897    382.82476    34026          410 
 1122000    295.60904   -47.740645    360.65703    34026          410 
 1123000    287.38066   -55.256613    321.60562    33990          374 
 1124000    299.67458   -44.327951     334.0156    33990          374 
 1125000     291.2352   -56.250403    344.90903    34013          397 
 1126000    296.09167   -52.525954    377.24875    34042          426 
 1127000     296.6478   -52.147488    365.00341    34029          413 
 1128000    307.31598   -44.791717    369.42169    34019          403 
 1129000    276.98706   -48.363427    342.24769    34031          415 
 1130000    298.07668   -44.759484    369.70705    34033          417 
 1131000    307.24368   -48.389497    405.68188    34059          443 
 1132000    310.22627   -44.983473    374.43771    34021          405 
 1133000    285.83818   -52.075839     363.6896    34043          427 
 1134000     313.2342    -57.06736    388.14943    34032          416 
 1135000    290.00614   -60.971519    367.85338    34039          423 
 1136000    288.51336   -52.335184    345.16294    34018          402 
 1137000    294.17387   -48.812753    365.14423    34033          417 
 1138000    297.95879   -53.575718    341.14846    34001          385 
 1139000    288.69544   -63.784732    362.09315    34037          421 
 1140000    302.63982   -60.909227    403.33281    34063          447 
 1141000    298.05999   -61.363847    378.12489    34042          426 
 1142000    286.14083   -55.323651    341.85489    34017          401 
 1143000    290.09585   -54.063362    328.77785    33997          381 
 1144000    297.26394   -47.168828    341.16435    34001          385 
 1145000    293.76843   -50.100782     331.7668    33995          379 
 1146000     311.7683   -38.110106    341.49605    33984          368 
 1147000    281.63843   -48.951822    325.28413    34004          388 
 1148000    296.75779   -48.721903    373.25337    34038          422 
 1149000    289.69088   -52.083601    379.16179    34056          440 
 1150000    284.95746   -46.872699    363.85652    34045          429 
 1151000    288.17733   -58.125991    367.64553    34044          428 
 1152000    278.96047   -59.298632    352.19146    34039          423 
 1153000    292.31618   -57.009527    335.13449    34000          384 
 1154000    293.55826   -52.810737    350.50512    34016          400 
 1155000    312.27702   -44.430294    385.90917    34030          414 
 1156000    292.25857   -50.334526    361.54067    34031          415 
 1157000    287.05224   -50.253711    373.25006    34053          437 
 1158000     288.2967   -47.942087    349.10357    34021          405 
 1159000     276.8909    -45.90732    346.08131    34035          419 
 1160000    281.74595   -48.425207    333.34649    34012          396 
 1161000    296.06941   -51.304752    362.66317    34027          411 
 1162000    289.81702    -46.51211    342.19405    34011          395 
 1163000    298.66063   -50.412222    359.70994    34020          404 
 1164000    296.92275    -54.53198    366.74608    34030          414 
 1165000    275.10216   -50.508579    335.91098    34025          409 
 1166000    309.48835    -49.40675    387.80035    34037          421 
 1167000    294.56083   -57.243803    371.55071    34040          424 
 1168000    289.88007   -49.330526    343.99179    34015          399 
 1169000    274.66952   -57.274193     327.8213    34017          401 
 1170000    302.40738   -53.354073    374.16281    34032          416 
 1171000    309.88792   -48.936582    385.35949    34034          418 
 1172000    280.01782   -56.314726    364.50902    34053          437 
 1173000    298.40052   -56.813414    368.14855    34030          414 
 1174000    296.38279   -47.592186    377.73966    34044          428 
 1175000    295.65441   -55.706956    365.20618    34030          414 
 1176000    261.93177   -48.330492    312.13883    34016          400 
 1177000    297.96938   -52.154758    347.77945    34008          392 
 1178000    296.18427    -44.76463    334.89616    33995          379 
 1179000    282.28383   -43.536734    317.89696    33994          378 
 1180000    292.12997   -41.872962    337.87625    34005          389 
 1181000    280.09204    -47.56824    319.29815    33999          383 
 1182000    306.19813   -48.285667    371.70869    34024          408 
 1183000    294.25272   -47.330582    373.77039    34039          423 
 1184000    302.69996    -52.34368    397.54905    34057          441 
 1185000    295.00511   -50.874523    360.24164    34026          410 
 1186000    283.73768   -52.048439    347.75333    34027          411 
 1187000    287.26523   -50.828996    357.39093    34034          418 
 1188000    275.77914   -54.843805    350.38537    34040          424 
 1189000    268.84142   -61.037217     346.0943    34048          432 
 1190000    303.27167   -58.798547    398.82586    34058          442 
 1191000    294.69683    -52.48516    351.79804    34017          401 
 1192000     301.0105   -62.667964    381.45482    34041          425 
 1193000     286.8821   -58.647722    350.67877    34026          410 
 1194000    302.83155   -62.122062    396.50676    34054          438 
 1195000     296.2002   -66.776093    367.85859    34033          417 
 1196000    297.76169   -61.312093    378.01397    34042          426 
 1197000    296.86412   -65.160299    374.33711    34039          423 
 1198000    284.70484   -64.459887    354.09575    34033          417 
 1199000    271.87184   -61.508359    352.57761    34051          435 
 1200000    282.45986    -53.23842    349.59877    34032          416 
 1201000    307.72889   -59.438683    377.74075    34028          412 
 1202000    301.59644   -53.433907    351.54651    34008          392 
 1203000    296.78392   -63.347631    377.05908    34043          427 
 1204000    290.49401   -67.488296    397.06898    34073          457 
 1205000    299.17004   -51.732219    389.65543    34052          436 
 1206000    283.90522    -53.47075    376.24358    34059          443 
 1207000    301.00276    -49.05147    403.90394    34067          451 
 1208000    271.67298   -52.838596    355.09016    34055          439 
 1209000     291.7387   -54.977336      394.281    34067          451 
 1210000    292.40999   -52.768746    369.71058    34040          424 
 1211000    278.81497   -56.827871    327.02333    34010          394 
 1212000    307.93692   -48.974308    373.65031    34024          408 
 1213000    285.97428   -50.080997    346.68499    34020          404 
 1214000    291.55638   -54.617581      356.404    34027          411 
 1215000    282.81573   -37.986943    320.95034    33997          381 
 1216000    294.12266   -40.907258    347.61863    34011          395 
 1217000    297.23344   -45.502986    330.83287    33987          371 
 1218000    298.83859   -56.445047    352.16574    34011          395 
 1219000    270.47321   -55.570627    338.57402    34036          420 
 1220000    288.00741   -49.682469    326.26531    33996          380 
 1221000    281.14778   -41.052992    313.07066    33990          374 
 1222000    296.19052   -50.942786    357.63522    34022          406 
 1223000    305.00112    -42.40639    371.05769    34025          409 
 1224000    291.58662   -44.691808    342.26059    34008          392 
 1225000    287.70168   -59.608836     351.4373    34026          410 
 1226000     305.3594   -50.374668    355.37649    34005          389 
 1227000    298.89889   -48.150022    333.14465    33990          374 
 1228000     316.3899    -50.17722     382.7788    34022          406 
 1229000    284.76761   -56.194417    349.57346    34028          412 
 1230000     282.1225    -44.54353    334.21218    34012          396 
 1231000      290.038   -46.807902    359.11273    34032          416 
 1232000    311.31851    -48.60079    378.26235    34024          408 
 1233000    300.88565   -53.781274    385.09138    34045          429 
 1234000    284.48874   -43.996057    340.55002    34018          402 
 1235000    298.69812   -46.159265    375.36568    34038          422 
 1236000    304.14229   -51.213875    400.03938    34057          441 
 1237000    295.41807   -48.312819    372.04789    34039          423 
 1238000    294.04077   -50.851285    361.93186    34029          413 
 1239000    294.21463   -55.693105    383.72689    34054          438 
 1240000    281.43159    -45.56602    346.80726    34030          414 
 1241000    277.92387   -52.139422    323.95114    34007          391 
 1242000    290.63509    -56.38199    351.95281    34020          404 
 1243000    295.07725   -57.899524    380.34878    34049          433 
 1244000    297.76602   -57.354743    383.32646    34048          432 
 1245000    295.31246   -53.932087    388.77332    34056          440 
 1246000    300.77261   -57.872828    391.93114    34053          437 
 1247000     304.0444   -58.052612    398.41298    34056          440 
 1248000     272.8964   -56.192454    373.29374    34075          459 
 1249000     264.6985   -58.507596    344.91239    34054          438 
 1250000     288.2644   -51.662507     328.2933    33998          382 
 1251000    288.37139    -51.94807    363.99159    34040          424 
 1252000    321.66268   -48.868967    400.93605    34034          418 
 1253000    290.68128   -55.438803    359.99676    34032          416 
 1254000    291.57577   -49.426392    334.94398    34002          386 
 1255000    304.11987   -56.395128    392.65399    34050          434 
 1256000    276.32641   -52.612775    348.21146    34039          423 
 1257000    299.06205   -51.537644     362.9029    34022          406 
 1258000     296.8616   -57.062724    365.73674    34030          414 
 1259000    292.19598   -53.365921     349.6829    34018          402 
 1260000    287.87334   -46.245807    351.38198    34026          410 
 1261000    302.35158   -52.308882    391.60198    34050          434 
 1262000    296.90663   -48.194467    341.73904    34002          386 
 1263000    290.12999   -47.100233    366.69598    34041          425 
 1264000     283.6106   -56.790698    366.62845    34050          434 
 1265000    305.06805   -47.971878    367.56663    34021          405 
 1266000    302.47033   -49.430769    349.24701    34003          387 
 1267000    305.22548   -56.773201    342.43643    33993          377 
 1268000    284.53878   -54.009035     348.4039    34026          410 
 1269000    279.48626   -53.616734    335.37424    34019          403 
 1270000    311.71928   -46.324252    382.03946    34027          411 
 1271000    284.45452   -47.905941    321.67846    33996          380 
 1272000    305.87383   -49.975235    378.68525    34032          416 
 1273000    278.85908   -54.125787    351.05548    34038          422 
 1274000    287.28174     -57.8354     346.0619    34020          404 
 1275000    273.35081   -61.120113    329.87112    34021          405 
 1276000    295.21987   -59.916691    353.34013    34018          402 
 1277000    307.13113   -56.023733    394.01687    34047          431 
 1278000    301.11748   -54.994194    370.04687    34029          413 
 1279000    290.72684    -57.48871    359.23792    34031          415 
 1280000    304.86308   -51.964044    402.45721    34059          443 
 1281000    293.96742   -47.046768    378.46702    34048          432 
 1282000    265.21462   -51.636576    338.50005    34045          429 
 1283000    289.27457   -61.292992    392.24642    34070          454 
 1284000    298.25553   -52.941964     365.8566    34026          410 
 1285000    280.26498   -51.489282    351.54535    34037          421 
 1286000    298.28379   -52.436288    367.04316    34029          413 
 1287000    291.42897   -55.931648    356.68169    34027          411 
 1288000    291.33115   -54.057828    344.06268    34012          396 
 1289000    269.51845   -51.682562    314.78031    34006          390 
 1290000    303.49298   -53.341595    359.32103    34011          395 
 1291000    271.02465     -60.5981    335.04077    34030          414 
 1292000    304.04861   -59.324448    398.92304    34056          440 
 1293000    290.78666   -65.920818    382.42633    34057          441 
 1294000     297.0472   -50.864645    388.28833    34054          438 
 1295000    314.67273   -57.783823    405.76933    34049          433 
 1296000    305.15861    -53.72837    380.50435    34033          417 
 1297000     275.2801   -51.055293    345.89027    34037          421 
 1298000    278.16357   -51.702423     354.6076    34044          428 
 1299000    302.86587    -59.16175    364.21619    34020          404 
 1300000    294.70781   -55.704209    353.64419    34019          403 
 1301000    286.37697   -60.598619    351.17623    34028          412 
 1302000    293.69395   -57.289628    391.40692    34064          448 
 1303000    299.64225    -58.43371    356.59535    34016          400 
 1304000    289.88955   -60.942083    368.60357    34043          427 
 1305000    298.98239   -59.095927    355.30735    34015          399 
 1306000    276.65028   -60.705035    323.45927    34009          393 
 1307000    301.73636   -55.317916    395.08995    34056          440 
 1308000    302.03771   -64.989705    371.54914    34029          413 
 1309000    280.94097   -63.088088    357.10115    34043          427 
 1310000    293.70287   -67.447478    385.82177    34057          441 
 1311000    311.93464   -66.143593    400.82888    34048          432 
 1312000    306.64521   -67.418672    409.98957    34065          449 
 1313000    271.82244   -57.772854    358.24857    34059          443 
 1314000    304.01406   -53.809174    371.78753    34027          411 
 1315000    301.26222   -52.005868    363.96851    34022          406 
 1316000    295.58506   -46.808991    371.18512    34033          417 
 1317000    305.28186   -52.317712    403.85161    34060          444 
 1318000     313.6285   -43.513918    413.21357    34059          443 
 1319000    282.76424    -48.87454    347.99848    34029          413 
 1320000     307.9504   -41.362064    371.19493    34021          405 
 1321000    309.82309   -45.268332    361.60043    34008          392 
 1322000    312.70633   -46.578949    388.34614    34033          417 
 1323000    278.10744   -41.602173      314.049    33995          379 
 1324000    288.93355   -42.963738    344.65148    34015          399 
 1325000    300.85824   -39.723157    342.80845    33999          383 
 1326000    287.42664    -49.09878    344.42181    34019          403 
 1327000      292.837   -45.274864    345.78776    34013          397 
 1328000    300.70462     -40.9792    355.66528    34011          395 
 1329000    274.99142   -43.625239    314.80231    34000          384 
 1330000    305.79746   -43.539711    368.06482    34020          404 
 1331000    291.85805   -44.244806    348.84125    34017          401 
 1332000    279.83888   -47.591953    318.14026    33998          382 
 1333000     307.0321   -46.373865     368.4814    34019          403 
 1334000    304.75969   -47.430742    363.39476    34016          400 
 1335000    290.97938   -43.128999    357.07415    34027          411 
 1336000    303.58769   -40.775591     321.8513    33971          355 
 1337000      295.248   -41.831847    314.81725    33974          358 
 1338000    293.41757   -48.394077    332.73592    33997          381 
 1339000    272.27456    -52.25756    347.42464    34044          428 
 1340000    285.56701   -44.126943    343.53096    34020          404 
 1341000    293.26774   -47.080563    345.14116    34010          394 
 1342000    299.56218   -48.836812    382.86482    34045          429 
 1343000    284.73674   -46.735895    365.04646    34045          429 
 1344000    288.96193   -53.092808    385.45795    34063          447 
 1345000    299.43875   -50.649209    365.10542    34025          409 
 1346000    280.01798   -47.534781    309.95041    33988          372 
 1347000    329.01236   -45.857933    401.36898    34026          410 
 1348000    265.63238   -41.281616    342.47667    34049          433 
 1349000    287.15864   -49.072904    347.41581    34021          405 
 1350000     290.4667   -47.519116    343.33533    34013          397 
 1351000     309.3125   -55.512093    374.67906    34023          407 
 1352000    269.55482   -54.186892    339.13763    34039          423 
 1353000    301.09011   -44.471253    362.93857    34021          405 
 1354000    281.09047    -56.39255    376.44783    34066          450 
 1355000    282.73439   -49.664698    360.89414    34043          427 
 1356000    296.22629   -41.842504    360.69206    34025          409 
 1357000    289.75635    -44.32123    367.43361    34042          426 
 1358000    279.23949   -53.911855    355.94284    34044          428 
 1359000    300.93641   -45.207622    362.71733    34020          404 
 1360000    299.08786   -42.954956    392.81489    34057          441 
 1361000    292.82778   -49.692733    350.28297    34016          400 
 1362000     292.6907     -55.8341    350.62549    34017          401 
 1363000    281.60098    -50.46336    342.02197    34024          408 
 1364000    291.25839   -46.711394    362.36583    34032          416 
 1365000    294.24078   -46.011464    329.08835    33992          376 
 1366000     296.0353   -52.373918    326.95845    33986          370 
 1367000    302.63287   -44.756844    352.30089    34007          391 
 1368000    285.69286    -49.47616    359.94516    34039          423 
 1369000    278.74126   -47.340775    306.70948    33985          369 
 1370000    308.26939   -55.237417    377.87918    34028          412 
 1371000    301.57927   -57.127203     360.6773    34015          399 
 1372000    297.08358   -56.527483    374.45864    34038          422 
 1373000    313.19198   -60.770752    396.03979    34040          424 
 1374000      291.376   -60.894537    410.56505    34089          473 
 1375000    288.61539   -54.385952    370.68661    34046          430 
 1376000    307.89257   -53.638136    374.42253    34024          408 
 1377000    308.72406   -58.334307    371.69032    34020          404 
 1378000     293.0052   -50.386692    351.10791    34016          400 
 1379000    275.80342   -56.955171     340.4683    34030          414 
 1380000    291.46874   -52.280135    366.39649    34037          421 
 1381000    287.17434   -54.522949    372.04485    34050          434 
 1382000    297.65068   -60.678402    376.37545    34041          425 
 1383000    292.54061   -57.052622    395.28026    34070          454 
 1384000    285.37321    -59.71638    401.67514    34089          473 
 1385000    280.83755   -58.246988    367.85665    34056          440 
 1386000    312.72632   -51.312659    376.63762    34019          403 
 1387000    269.37151   -52.401252    347.54189    34048          432 
 1388000    291.95419    -55.65793    382.72479    34056          440 
 1389000    302.61199   -43.963694    366.45223    34022          406 
 1390000    281.24316   -47.401237    335.62881    34016          400 
 1391000    301.16017   -48.802496    376.62329    34035          419 
 1392000     288.8059   -46.038254    345.38956    34017          401 
 1393000    278.79788   -46.776686    327.16984    34008          392 
 1394000    278.63829   -46.022467    338.39982    34023          407 
 1395000    288.25261   -44.404354    350.91091    34025          409 
 1396000    297.97867   -51.475251    365.91141    34028          412 
 1397000    299.59401   -53.729403    374.26068    34035          419 
 1398000    285.63262   -60.546806    393.74061    34078          462 
 1399000    302.69866   -55.234178    404.12291    34062          446 
 1400000    290.20083   -45.575754    344.32535    34014          398 
 1401000    308.45089   -53.996783     371.4026    34020          404 
 1402000    305.47736   -63.853269    386.40294    34041          425 
 1403000    293.37807    -56.43724    375.48613    34046          430 
 1404000    306.59428   -66.659824    396.90818    34051          435 
 1405000    288.79873   -64.772111    374.71435    34052          436 
 1406000    286.68482   -61.180755    338.29273    34012          396 
 1407000    289.35531   -53.778464    358.18662    34032          416 
 1408000    290.94845   -59.613147    378.75543    34053          437 
 1409000    272.40407   -53.137922    333.97459    34027          411 
 1410000    311.92482   -54.713292    366.41878    34011          395 
 1411000    286.25554    -51.06239    376.31065    34057          441 
 1412000    287.99063   -47.514496    379.42347    34058          442 
 1413000    297.05874   -55.774193    351.00787    34012          396 
 1414000    313.21296   -48.918572    384.05306    34027          411 
 1415000    308.78197   -52.617885    355.72531    34001          385 
 1416000    299.07775   -65.600603    391.74055    34056          440 
 1417000    300.59142   -56.335283    418.16441    34083          467 
 1418000    320.15514   -52.296906    399.39976    34035          419 
 1419000    293.95468   -57.489884    381.51227    34051          435 
 1420000    293.13379   -53.535323    368.05092    34038          422 
 1421000    293.67715   -49.767823    371.59276    34040          424 
 1422000     289.4943   -58.841999    391.85088    34070          454 
 1423000    290.27012   -56.426423    371.80659    34046          430 
 1424000    296.33116   -61.019715    375.50585    34041          425 
 1425000    296.55356   -55.604095    385.19028    34050          434 
 1426000    307.05888     -57.3469    375.59436    34026          410 
 1427000    288.49941   -52.731976    342.29788    34015          399 
 1428000    304.12106   -50.154598     353.2678    34006          390 
 1429000    310.76869   -45.608619    344.30995    33988          372 
 1430000    298.03672   -41.310334    372.45917    34034          418 
 1431000    295.72006   -45.652145    355.73862    34019          403 
 1432000    290.11793   -48.036847    373.53188    34048          432 
 1433000    302.86656   -52.147815     352.8793    34007          391 
 1434000     290.3785   -53.511374    377.35066    34052          436 
 1435000    301.17556   -39.600104    356.48482    34013          397 
 1436000    277.41684   -47.621231    347.00251    34036          420 
 1437000    303.31655   -45.309387    360.18219    34015          399 
 1438000    276.26551   -50.953105    341.99623    34032          416 
 1439000    288.35932    -58.95435    349.73463    34023          407 
 1440000    311.49931   -59.320228    406.55384    34054          438 
 1441000     300.8909   -58.089467    365.21433    34023          407 
 1442000    283.05048   -57.745561    332.80872    34009          393 
 1443000    311.72633   -54.891459    372.33191    34017          401 
 1444000    296.92349    -49.33958    341.42413    34002          386 
 1445000    282.85553   -49.299578    334.12906    34012          396 
 1446000    280.26204   -52.679717    347.09557    34032          416 
 1447000    307.13523    -48.71087    390.03129    34042          426 
 1448000    295.55441   -56.562385    362.65792    34027          411 
 1449000    280.43514   -56.179465     327.7374    34008          392 
 1450000    300.48461   -52.147075    385.20117    34047          431 
 1451000     290.1028   -54.185515    359.27424    34031          415 
 1452000    291.40671   -49.089781    334.20448    34001          385 
 1453000    276.69013    -46.64276    314.40956    33997          381 
 1454000    304.52246   -45.792228    388.67581    34044          428 
 1455000    282.24471   -60.202082    339.04874    34019          403 
 1456000    285.44201   -50.597867    352.61025    34029          413 
 1457000     297.3312   -45.659408    370.20974    34033          417 
 1458000    279.80628   -43.397691    336.17815    34019          403 
 1459000    291.14831   -46.492495    362.28914    34034          418 
 1460000    296.67642   -43.320665    343.35445    34005          389 
 1461000    300.42252   -52.048695    342.32437    33999          383 
 1462000     316.2224   -47.471585    362.93313    34002          386 
 1463000    301.78846    -48.74039    337.71377    33991          375 
 1464000    297.84512   -50.492894    359.48657    34021          405 
 1465000    326.67941   -48.416991    411.11165    34039          423 
 1466000    320.60508   -57.303064    393.84281    34029          413 
 1467000    298.53111   -51.062997    352.15849    34012          396 
 1468000    297.65553   -54.608134    398.72276    34066          450 
 1469000    276.47726    -59.07578    379.10091    34075          459 
 1470000    309.33498   -54.587203    407.66041    34058          442 
 1471000    287.60786   -49.428586    349.00171    34023          407 
 1472000    281.37676   -52.758959    380.40766    34070          454 
 1473000     299.2274   -70.347591     394.3361    34059          443 
 1474000    287.76689   -55.172007    367.31439    34045          429 
 1475000     295.1349   -56.848739    376.59064    34044          428 
 1476000    294.10273   -54.480747    343.37923    34008          392 
 1477000    281.00194   -49.804625    324.41277    34004          388 
 1478000    293.34348   -53.417427    365.05639    34034          418 
 1479000    292.82632   -51.786632    364.46792    34034          418 
 1480000    331.07079   -57.729088    383.16219    34004          388 
 1481000    287.02351   -55.949968    355.40737    34032          416 
 1482000    292.22853   -59.823664     348.5317    34016          400 
 1483000    283.98111   -56.668933    350.26121    34030          414 
 1484000    285.05824   -57.342604    337.08752    34013          397 
 1485000    295.94284   -55.717924    356.11141    34019          403 
 1486000    304.97638   -66.260819    379.16608    34033          417 
 1487000    275.53018    -58.63986     343.6451    34035          419 
 1488000    281.33143     -55.9983    350.28267    34034          418 
 1489000    309.71981    -54.30951    380.96572    34028          412 
 1490000    286.61356   -62.972467    379.93515    34060          444 
 1491000     340.7977    -60.45604    438.06868    34047          431 
 1492000    283.58771   -64.627752    380.82344    34067          451 
 1493000    279.37897   -65.388173    365.52701    34054          438 
 1494000    281.93445   -56.821619    343.96716    34025          409 
 1495000    303.88537   -47.556673    354.89355    34007          391 
 1496000    292.33415   -56.851157    372.97796    34043          427 
 1497000    288.17312   -58.731281    346.33254    34019          403 
 1498000    288.53643   -50.550991     352.7395    34026          410 
 1499000    298.58558   -53.010282    360.21058    34021          405 
 1500000    307.69667   -62.442855    407.38288    34061          445 
 1501000    312.88596   -57.285419    384.34991    34029          413 
 1502000     315.2688   -55.263627    359.18775    33999          383 
 1503000    298.37143   -53.548135    371.32183    34032          416 
 1504000    313.32391   -59.962814     402.3278    34046          430 
 1505000    277.74381    -53.54966    339.94844    34027          411 
 1506000     297.3137   -53.421545    370.29456    34034          418 
 1507000    309.14011   -46.454316    409.16163    34059          443 
 1508000    297.59065   -57.205344    392.34433    34057          441 
 1509000    297.47376   -49.326256    402.13874    34068          452 
 1510000    290.05775   -49.519117    343.45901    34013          397 
 1511000    295.75656   -51.904585    359.31446    34022          406 
 1512000    298.68329   -45.024352    345.58015    34005          389 
 1513000    299.28334   -45.275312    375.99225    34038          422 
 1514000    307.13774   -49.605097    396.09508    34049          433 
 1515000    310.16029   -50.717491      368.276    34014          398 
 1516000    283.38938   -56.302378    342.35862    34021          405 
 1517000    306.71582   -51.353716    389.11774    34042          426 
 1518000    287.07626   -52.056607    361.96754    34039          423 
 1519000    284.82589   -61.273254    367.88472    34048          432 
 1520000    297.22285   -63.998456     393.4326    34059          443 
 1521000    299.26098   -48.789926    370.81475    34030          414 
 1522000     299.9892   -56.428934     341.0151    33997          381 
 1523000    310.60142   -54.305726    383.77797    34031          415 
 1524000    292.05958   -47.340196    367.77609    34039          423 
 1525000    279.83645   -54.236309    348.71568    34035          419 
 1526000    279.52987   -53.111473    336.78564    34019          403 
 1527000    293.36226   -52.116055    378.32851    34049          433 
 1528000    297.31902   -61.543166    387.49282    34052          436 
 1529000     300.1728    -52.07374    319.88229    33974          358 
 1530000    288.89409   -58.796144    363.86503    34039          423 
 1531000    276.76562   -53.270195    333.23574    34020          404 
 1532000     294.0659   -56.008994    365.83588    34034          418 
 1533000    300.51882   -66.351903    362.88184    34021          405 
 1534000     289.2321   -46.824144    347.74429    34019          403 
 1535000    287.12854   -47.593474    340.54126    34013          397 
 1536000    311.09604   -54.604983    395.84017    34043          427 
 1537000    295.13349   -59.348177    381.66337    34050          434 
 1538000    280.26055   -61.881004    342.17844    34026          410 
 1539000    289.91221   -57.287359    398.49718    34078          462 
 1540000    287.40035   -50.796033    349.10721    34024          408 
 1541000    291.82437   -41.449303    346.06278    34014          398 
 1542000    296.61902   -45.332842    369.04081    34034          418 
 1543000    274.31677   -47.358787    328.35758    34018          402 
 1544000    289.04278   -46.469087    334.64425    34005          389 
 1545000    301.24214   -43.219253    353.44237    34010          394 
 1546000    294.32836   -42.323785    323.95422    33985          369 
 1547000    304.69471   -44.142585    355.23792    34007          391 
 1548000    288.69432   -39.770675    304.08193    33970          354 
 1549000    297.97874   -43.095473    326.67099    33984          368 
 1550000    292.29497   -41.857141    329.15636    33994          378 
 1551000    293.23721   -46.766864     364.9216    34033          417 
 1552000    263.92299   -41.596128    327.89947    34032          416 
 1553000    293.54602   -41.762508    320.49782    33983          367 
 1554000    297.63735   -36.454478    337.74501    33997          381 
 1555000    287.03937   -37.197271    334.13265    34007          391 
 1556000    274.12868   -55.605109    334.45279    34024          408 
 1557000    298.07165   -43.436434    353.02861    34014          398 
 1558000    293.61633   -43.084139    345.15687    34010          394 
 1559000     288.9267   -47.410487    348.89936    34022          406 
 1560000    286.01309   -45.480135    343.68941    34018          402 
 1561000     281.7249    -41.21776    358.40411    34043          427 
 1562000    273.82311   -52.767601    353.53015    34049          433 
 1563000    295.85605   -50.399549    374.51903    34041          425 
 1564000    290.98826   -47.307767    358.25059    34028          412 
 1565000    296.87699   -45.582231    358.04088    34021          405 
 1566000    271.77825   -50.399979    353.28473    34053          437 
 1567000    292.51712   -45.784807     324.3325    33988          372 
 1568000    305.18684   -55.898016    350.90412    34002          386 
 1569000    305.76935   -45.326581    353.29576    34004          388 
 1570000    335.34019   -52.201071     411.7824    34028          412 
 1571000    300.47454   -48.534673    387.73086    34049          433 
 1572000     286.5128   -43.143017    355.45336    34033          417 
 1573000    279.62745   -53.081062    372.73309    34064          448 
 1574000    329.51374   -51.281041    411.43768    34034          418 
 1575000    307.47538   -52.430034    414.96178    34069          453 
 1576000    295.98055   -53.278634    383.79434    34051          435 
 1577000    275.24557   -51.301361    346.87827    34039          423 
 1578000    286.84103   -50.019075    362.36437    34039          423 
 1579000    280.73912   -43.615689    337.41507    34019          403 
 1580000    301.98435   -43.713382    329.60254    33982          366 
 1581000    288.33119   -54.192484    330.92771    34001          385 
 1582000    288.61807    -51.11238     347.8377    34019          403 
 1583000     313.4332   -48.995936      388.263    34032          416 
 1584000    293.54201   -45.012508    363.58213    34032          416 
 1585000    278.94588   -42.831335      353.092    34041          425 
 1586000    298.71871   -44.069203    373.32094    34036          420 
 1587000    285.04075   -46.994173    342.74369    34019          403 
 1588000    290.33713   -57.673592    373.11107    34048          432 
 1589000    304.92787   -65.311647    401.03114    34058          442 
 1590000    302.21183   -57.870076     385.9434    34045          429 
 1591000      280.136   -61.545836    382.59603    34073          457 
 1592000     303.2647   -60.388652    367.48281    34023          407 
 1593000    300.10596   -58.890451    366.41298    34026          410 
 1594000    286.32628   -51.021695    345.84131    34021          405 
 1595000    273.85005   -52.065742    317.50036    34004          388 
 1596000    294.47231   -61.683229    353.81102    34019          403 
 1597000    296.79414   -62.527281    403.78406    34072          456 
 1598000    309.88299   -62.946857    392.78933    34042          426 
 1599000    305.59082    -69.53967    403.48515    34059          443 
 1600000    306.12519    -66.06656    423.69408    34080          464 
 1601000    290.20157   -53.733797    373.43687    34047          431 
 1602000    287.43376   -52.667662    339.07537    34012          396 
 1603000    278.12151   -55.189395    353.74194    34043          427 
 1604000    294.77965    -54.35589    383.99904    34053          437 
 1605000    295.91245   -61.223641    385.68748    34053          437 
 1606000    302.84621   -49.269135    369.37182    34026          410 
 1607000    305.58786   -57.689736    348.38592    33999          383 
 1608000    311.09513   -56.244016    371.87341    34017          401 
 1609000    298.63198   -53.741262    370.88037    34033          417 
 1610000    289.19365   -54.066425    369.72487    34045          429 
 1611000    301.04627   -61.216653    427.49118    34088          472 
 1612000    305.87852    -56.17207    421.04279    34078          462 
 1613000    304.40057   -55.397546    381.45844    34034          418 
 1614000    306.37926   -58.823927    397.95898    34051          435 
 1615000    288.73074    -54.41717     369.8762    34046          430 
 1616000    295.92987   -55.986646    354.66423    34019          403 
 1617000    311.87119   -56.570856    380.27193    34026          410 
 1618000    291.39076   -52.103649    334.31389    34000          384 
 1619000    285.52145   -52.705036    343.06785    34018          402 
 1620000     296.4426   -55.162763    369.31912    34032          416 
 1621000    300.72771    -51.00735    359.14337    34017          401 
 1622000     282.9908   -50.827725    332.80182    34011          395 
 1623000    306.21801   -47.460763     364.5504    34016          400 
 1624000     296.5393    -47.27285     366.1084    34029          413 
 1625000    292.37697   -46.813488    359.32616    34029          413 
 1626000    297.43749   -41.602825    338.23347    33998          382 
 1627000    298.24546   -45.470882    350.10547    34009          393 
 1628000    307.78209   -41.378551    349.73281    33996          380 
 1629000    290.58904   -45.427479     320.0213    33986          370 
 1630000    274.49114   -45.279197    335.35864    34026          410 
 1631000    279.33528   -40.721654     317.3376    33997          381 
 1632000    274.97429   -50.265395    336.19007    34026          410 
 1633000    268.70983   -50.620382    338.47574    34037          421 
 1634000    285.62745   -47.139979    350.41209    34028          412 
 1635000    301.08216   -49.424541    384.43349    34044          428 
 1636000    303.47708   -51.115385    373.77085    34030          414 
 1637000    281.09013   -59.306727    325.36843    34005          389 
 1638000      283.605   -53.774515    340.07064    34019          403 
 1639000    289.23488   -53.069003    329.75837    33999          383 
 1640000    304.32305   -53.733751    361.43426    34014          398 
 1641000    279.56664   -55.680785    352.64764    34039          423 
 1642000    294.44071    -55.01401    360.65429    34027          411 
 1643000    281.69189   -47.986234    355.33812    34040          424 
 1644000    294.83884   -55.892209    352.20359    34016          400 
 1645000      272.173   -51.024312    326.26393    34019          403 
 1646000    279.01687   -51.602599    359.13999    34047          431 
 1647000    285.00379   -41.705688    375.05217    34056          440 
 1648000    305.91363   -66.025569    405.18454    34059          443 
 1649000    287.14094   -57.891862    345.26874    34019          403 
 1650000    274.27021   -48.481599    330.04446    34020          404 
 1651000    304.87209   -41.676938     354.9354    34007          391 
 1652000    273.11702   -47.830795    332.69005    34025          409 
 1653000     289.0015   -47.487358    381.91609    34060          444 
 1654000    303.28688   -49.863233    368.22935    34023          407 
 1655000     279.6986   -46.527582    329.98088    34011          395 
 1656000    297.37378   -52.526775     362.4239    34024          408 
 1657000    285.42511   -50.290671    355.19193    34033          417 
 1658000    308.99961   -51.345263    347.59145    33994          378 
 1659000    281.25936   -56.323132    329.91245    34010          394 
 1660000    296.45264   -59.621487      367.899    34033          417 
 1661000    288.10575   -59.187633     376.3967    34055          439 
 1662000    287.96707   -56.495875    356.42863    34032          416 
 1663000    275.77947    -57.41898    341.18581    34030          414 
 1664000    302.20607   -53.308546    370.18393    34027          411 
 1665000    302.96783   -46.140662    375.36813    34030          414 
 1666000    287.84247   -40.373004    343.32962    34017          401 
 1667000    286.88297    -50.13863    375.69693    34053          437 
 1668000    296.55808   -56.119238    367.64178    34032          416 
 1669000    309.68871   -48.413863    388.82149    34036          420 
 1670000    291.63923   -51.326241     354.2916    34022          406 
 1671000    284.09594    -53.39604    363.57582    34044          428 
 1672000    299.10384    -46.60995    365.46952    34026          410 
 1673000    296.70575   -48.964262    364.47224    34029          413 
 1674000    300.15296   -39.611962    362.50041    34022          406 
 1675000    303.54774   -43.043894    339.62247    33992          376 
 1676000    284.04671   -50.368849    336.44997    34014          398 
 1677000    280.66923   -43.456459    356.55175    34042          426 
 1678000    297.42024   -43.793144    348.93747    34009          393 
 1679000    285.89713    -45.79872    331.71699    34006          390 
 1680000    290.08476   -41.184349    325.02741    33992          376 
 1681000    294.31836   -40.552773    353.31081    34019          403 
 1682000    285.15482    -45.58294    351.23369    34030          414 
 1683000    303.63472   -43.074936    349.64559    34003          387 
 1684000    290.57893   -53.899814    339.14815    34008          392 
 1685000    291.28199   -55.460023    398.46851    34075          459 
 1686000    298.27978   -53.865357    378.14817    34042          426 
 1687000    291.35068   -58.699666    368.18472    34039          423 
 1688000    301.12481   -53.242399    391.02072    34051          435 
 1689000    306.02819   -54.007772    392.15433    34046          430 
 1690000    301.37906   -54.669875     354.1536    34011          395 
 1691000    281.34973   -50.833275    345.64637    34027          411 
 1692000    286.68331   -54.042378    344.87396    34020          404 
 1693000    281.10282   -55.702395      332.348    34013          397 
 1694000    321.37522   -46.965943    406.86571    34041          425 
 1695000    289.03849    -53.60524    349.37376    34021          405 
 1696000    294.57692   -61.974172     390.1504    34060          444 
 1697000    310.52818   -59.288275    356.70307    34002          386 
 1698000    286.95277    -55.21068    362.27474    34039          423 
 1699000    318.81032   -57.984595    435.14166    34074          458 
 1700000     292.8344   -57.372929    394.73952    34067          451 
 1701000     277.7051   -56.352278    353.65709    34043          427 
 1702000    293.32474   -55.402938    358.46689    34025          409 
 1703000    287.10884   -62.444137    368.43029    34045          429 
 1704000    306.02592   -56.390651    394.18637    34049          433 
 1705000     281.8194    -60.61416    319.16447    33996          380 
 1706000    275.73881   -57.486755    341.68574    34032          416 
 1707000    303.53085   -55.208307    384.86755    34042          426 
 1708000    284.15821   -55.950766    352.50284    34032          416 
 1709000    296.19417   -56.165646    375.51346    34042          426 
 1710000    261.44689   -60.536113    322.77028    34031          415 
 1711000    315.92633   -59.111439    401.53603    34043          427 
 1712000    295.87544    -63.80466    389.26386    34057          441 
 1713000    296.23091    -56.59502    379.12299    34046          430 
 1714000    308.49089   -55.685617    399.66085    34051          435 
 1715000    280.75266   -55.853935    360.91159    34045          429 
 1716000    294.51205   -48.982151    345.50733    34010          394 
 1717000    287.59272   -52.901025    357.14007    34032          416 
 1718000    268.73579    -57.21889    362.37706    34068          452 
 1719000    309.60688   -57.935387    384.28314    34032          416 
 1720000    310.34828   -60.590112    346.43545    33991          375 
 1721000    316.15527   -56.137926    383.99142    34024          408 
 1722000    283.62109   -53.924126    355.86158    34037          421 
 1723000    300.80418   -53.170817    380.71857    34041          425 
 1724000    276.70707   -61.080488    380.44852    34077          461 
 1725000    277.11188   -60.053654    353.82481    34043          427 
 1726000    289.85258   -53.728901    346.58589    34018          402 
 1727000    310.50366   -54.578617    360.20898    34004          388 
 1728000    285.16771   -54.577472    349.42157    34028          412 
 1729000     287.1212   -60.321063    352.75646    34028          412 
 1730000    300.67028   -59.000757    381.15905    34042          426 
 1731000    318.61536   -59.167579    412.09909    34050          434 
 1732000    292.89606   -49.350561    372.85952    34043          427 
 1733000    276.63469   -58.884247    348.25048    34039          423 
 1734000    283.88186   -56.296823     333.2258    34010          394 
 1735000    300.68972   -57.076552    365.24531    34024          408 
 1736000    267.77124   -55.373333    327.04354    34025          409 
 1737000     296.1142   -55.757015    354.11685    34017          401 
 1738000    280.68288   -62.675488    364.44097    34050          434 
 1739000    306.05564   -55.497384    389.99136    34044          428 
 1740000    280.88024   -57.467438    327.22525    34006          390 
 1741000    308.17607   -54.307374    372.30544    34020          404 
 1742000    268.46965    -56.65509    316.99979    34013          397 
 1743000    277.49511   -54.070024    331.81555    34018          402 
 1744000    286.24897    -62.60887    339.22257    34014          398 
 1745000    303.35037   -56.368197    383.57832    34041          425 
 1746000    282.53851   -59.043683    356.59995    34039          423 
 1747000     290.6674   -61.973922    352.20158    34022          406 
 1748000    272.94961   -56.181789    344.31385    34040          424 
 1749000    319.51029   -57.147498     380.8466    34016          400 
 1750000    313.12413   -58.586421    372.57855    34015          399 
 1751000     289.8138    -55.12004    336.71276    34006          390 
 1752000    262.40842   -61.868376    305.38934    34007          391 
 1753000    296.10723   -65.648346    361.08808    34026          410 
 1754000    297.61361   -58.127467    361.36818    34022          406 
 1755000    311.11326   -56.844751    365.80198    34011          395 
 1756000    294.76263   -54.098784     360.3904    34027          411 
 1757000    291.00852   -59.013996     365.5178    34038          422 
 1758000    291.24109   -58.484382    376.05916    34049          433 
 1759000    260.60685   -58.451028    342.16121    34057          441 
 1760000    280.29084   -52.396682    327.75787    34009          393 
 1761000    286.51914   -46.372558    324.96212    33997          381 
 1762000    280.18587   -53.713319    338.60071    34021          405 
 1763000    294.68959   -55.500839    366.71677    34034          418 
 1764000    280.73926    -53.86835    328.26223    34009          393 
 1765000    293.58635   -54.757671    339.04691    34004          388 
 1766000    289.49677   -51.803906    325.63337    33992          376 
 1767000    314.00314   -54.280724    421.57316    34067          451 
 1768000    293.99598   -50.054671    369.25912    34038          422 
 1769000    301.09526   -46.470993     356.4982    34014          398 
 1770000    281.52862   -58.703605    349.71377    34032          416 
 1771000    319.04332   -58.807722    404.34519    34042          426 
 1772000    272.61471   -57.607037    322.54272    34013          397 
 1773000    290.09069   -48.715135    365.43706    34039          423 
 1774000    275.96718   -52.796912    332.19617    34020          404 
 1775000    271.69373   -49.881408    361.32824    34063          447 
 1776000    293.47063   -58.921758    373.99604    34042          426 
 1777000    286.61182   -60.417702    374.61717    34054          438 
 1778000    307.35016   -69.190404    381.60391    34032          416 
 1779000    293.93139   -54.456135    357.62683    34025          409 
 1780000    295.13922   -55.654288    341.63663    34004          388 
 1781000    289.51901   -55.179963    365.20451    34040          424 
 1782000    326.35305   -58.024782    400.65518    34026          410 
 1783000    278.81059   -69.525319    371.99932    34062          446 
 1784000    285.80382   -61.048704    355.15091    34033          417 
 1785000    305.40184     -53.9475    377.99038    34030          414 
 1786000    283.09517    -47.78607    342.15822    34022          406 
 1787000    287.76367   -49.756095    349.70154    34023          407 
 1788000    304.58734   -50.646687    342.39919    33994          378 
 1789000    325.01594   -52.949289    418.03697    34047          431 
 1790000    269.11984   -57.455921     335.5083    34034          418 
 1791000    300.46946   -53.369407    375.14255    34034          418 
 1792000    279.08487   -60.028534    360.99829    34050          434 
 1793000    297.49215    -63.38338    389.78803    34056          440 
 1794000    279.90564   -66.795687    350.26881    34036          420 
 1795000    291.86255   -59.399887    396.71058    34072          456 
 1796000    297.07213   -51.914194    350.04883    34012          396 
 1797000    309.08232   -46.483281    382.23106    34031          415 
 1798000    305.02621   -47.196084    398.61022    34052          436 
 1799000    288.05179   -53.229423    404.62079    34088          472 
 1800000    288.89011   -61.414151    373.01733    34050          434 
 1801000    311.08791   -55.415483    357.31147    34002          386 
 1802000    295.34569   -43.093564    354.48875    34018          402 
 1803000    290.30893   -55.456181    362.91169    34036          420 
 1804000     296.2408   -50.415296    364.84805    34029          413 
 1805000    310.61852   -47.200977    390.57234    34038          422 
 1806000    286.00877   -46.706919     315.7045    33987          371 
 1807000     297.6796   -48.928757    368.56323    34029          413 
 1808000    290.62958   -56.899541     331.2086    33998          382 
 1809000    303.57161    -58.15895    399.17482    34058          442 
 1810000    279.88197    -54.95307    365.90123    34055          439 
 1811000    290.53414   -48.134019     361.6491    34033          417 
 1812000    298.47497   -50.541986    364.19872    34025          409 
 1813000    295.53103   -47.573994    355.22679    34020          404 
 1814000    294.55704   -54.208267    361.57532    34027          411 
 1815000    301.55741   -55.463447    369.29624    34027          411 
 1816000    289.39982   -59.555087     358.5473    34031          415 
 1817000    287.98191   -53.853656    362.77934    34039          423 
 1818000    297.53566   -53.987329    357.52238    34020          404 
 1819000    281.52212     -55.6307     368.5503    34056          440 
 1820000    278.97849   -56.798317    373.10007    34065          449 
 1821000    310.61457   -62.779758    380.39806    34026          410 
 1822000    312.10685    -59.35729    402.56568    34049          433 
 1823000    299.26296   -55.992508    394.73715    34059          443 
 1824000    297.55256   -57.058423      372.642    34036          420 
 1825000    294.51771   -58.206566    376.83214    34046          430 
 1826000    260.08085   -58.867124    334.29542    34048          432 
 1827000    285.80151   -54.549301    341.81735    34017          401 
 1828000    292.53088   -60.487241    331.78214    33997          381 
 1829000    303.65769   -57.288446    399.28329    34057          441 
 1830000     288.6889   -62.054255    354.35355    34028          412 
 1831000    279.59486   -58.752701    339.36055    34023          407 
 1832000    286.35517   -56.990636     372.3564    34052          436 
 1833000    287.91802   -56.778141    372.00993    34050          434 
 1834000    272.78093   -59.424957    325.58497    34016          400 
 1835000     278.8897   -54.502966    325.47192    34008          392 
 1836000    299.20367   -58.278543    376.94648    34038          422 
 1837000    288.88416   -56.262491    371.76601    34048          432 
 1838000     283.5903   -56.423356    338.43573    34016          400 
 1839000    273.06296   -56.099446    345.29033    34041          425 
 1840000    302.08808   -64.489446    385.79925    34045          429 
 1841000    288.42218   -67.546046    388.65692    34068          452 
 1842000    306.93221   -66.222058    386.63453    34039          423 
 1843000    302.50398   -60.949461    387.62794    34046          430 
 1844000    290.46768   -65.321684    364.22117    34037          421 
 1845000    304.65332   -53.685278    351.55241    34003          387 
 1846000    286.84157   -49.476776    333.59629    34007          391 
 1847000     291.1028   -56.504594     374.2925    34048          432 
 1848000    313.21127   -48.364985    362.94182    34005          389 
 1849000    295.33586   -55.607839    380.44245    34049          433 
 1850000    291.14599   -52.622705    349.20401    34019          403 
 1851000    289.21101   -53.909885    343.79682    34014          398 
 1852000    297.46188   -57.073327    368.69791    34032          416 
 1853000    272.08812   -54.752271    343.41209    34037          421 
 1854000    277.92808   -52.151641    344.83568    34033          417 
 1855000    279.88491   -47.236064    343.53779    34028          412 
 1856000    284.51271   -48.423628     317.3032    33991          375 
 1857000    289.83173   -49.757966    338.03201    34008          392 
 1858000    301.47554   -51.640853    357.27348    34014          398 
 1859000    292.34252   -58.325444    360.64013    34027          411 
 1860000    283.21626   -49.099415    347.46116    34027          411 
 1861000    308.36418   -62.055317    397.20201    34049          433 
 1862000    293.61148   -52.249391    367.97605    34037          421 
 1863000    302.86521   -56.765028     359.1847    34013          397 
 1864000    309.71508   -51.574957    383.63582    34032          416 
 1865000    315.64528   -61.567812    391.30134    34031          415 
 1866000    302.51294     -58.5998    419.44554    34081          465 
 1867000    299.65484    -52.49146    382.62451    34045          429 
 1868000    299.23753   -51.895314    354.67173    34014          398 
 1869000    310.94743   -55.259526     360.6388    34006          390 
 1870000    285.70817   -48.936303    349.48833    34027          411 
 1871000    298.29024   -52.881589    367.25177    34027          411 
 1872000    291.48363   -54.946487      352.781    34022          406 
 1873000    297.48479   -55.767544     384.9351    34051          435 
 1874000     287.6856   -56.742619    372.27755    34051          435 
 1875000    311.17468   -51.997681    378.68833    34024          408 
 1876000    272.32633   -48.206192     327.6604    34018          402 
 1877000    303.66324   -47.491119    355.48944    34009          393 
 1878000    301.91817   -52.429478    348.59196    34004          388 
 1879000    272.94161   -53.705695    336.17925    34030          414 
 1880000    298.40697   -53.819453    386.67926    34051          435 
 1881000    268.53802   -53.747323    324.67064    34022          406 
 1882000    289.37983   -54.165121    352.23009    34025          409 
 1883000    299.19306   -54.108683    396.23848    34061          445 
 1884000    287.11024   -55.647169    361.60195    34035          419 
 1885000    287.10947   -53.280481    359.07556    34035          419 
 1886000     295.2262   -51.695956    377.96692    34046          430 
 1887000    304.60882    -55.59156     394.5018    34050          434 
 1888000    298.91047   -62.304417    401.00322    34066          450 
 1889000    297.13684   -48.689504      374.068    34038          422 
 1890000    285.47323   -53.595435    337.69293    34013          397 
 1891000    298.07523   -52.180162      408.273    34074          458 
 1892000    310.57031   -51.824766      395.973    34044          428 
 1893000    302.79573   -57.645312    400.02329    34060          444 
 1894000    295.42666   -45.349026    376.34248    34044          428 
 1895000     291.0494   -49.462138    356.29408    34027          411 
 1896000    300.12511   -55.362609    390.55778    34053          437 
 1897000     293.6443   -55.416047    387.42644    34058          442 
 1898000    277.17715   -55.410459    338.93543    34027          411 
 1899000    296.94427   -49.228843    381.62304    34046          430 
 1900000    310.79881   -55.842402    395.29157    34041          425 
 1901000     310.3295   -56.933189    386.05042    34034          418 
 1902000    322.10099   -54.800524    411.36678    34044          428 
 1903000    277.11803   -56.150666    337.65218    34025          409 
 1904000    286.83358   -53.639142    335.27442    34009          393 
 1905000    279.69682   -54.573655    346.84835    34032          416 
 1906000    280.51345   -57.192634    338.29651    34021          405 
 1907000    283.00258   -52.097413    368.21425    34053          437 
 1908000     262.0974   -52.237518    307.29252    34008          392 
 1909000    279.69264   -50.199428    305.42697    33983          367 
 1910000    298.55825   -54.149646    339.22343    33998          382 
 1911000    287.00637   -59.178062    336.00101    34009          393 
 1912000    313.04588   -50.405436    375.39654    34018          402 
 1913000    287.09668    -55.55661    343.55001    34017          401 
 1914000    309.78662   -48.391245    346.32368    33991          375 
 1915000    277.78082   -52.998256    338.84572    34025          409 
 1916000     297.1446   -48.172902     351.3035    34012          396 
 1917000    282.22132   -56.142345     378.7875    34066          450 
 1918000    303.55299   -52.574282    400.37166    34059          443 
 1919000    303.89754   -54.030415    391.92988    34046          430 
 1920000    297.19434   -48.910057    350.86892    34013          397 
 1921000    319.26096   -52.004306    392.13925    34028          412 
 1922000    290.15196   -70.573203    370.21469    34044          428 
 1923000    318.79188   -55.574942     386.6966    34022          406 
 1924000    294.23656   -52.261067    357.14848    34023          407 
 1925000    311.31741   -54.987491    394.84712    34042          426 
 1926000    295.34889   -53.409387    363.70555    34029          413 
 1927000    296.24555    -58.59779    407.82292    34077          461 
 1928000    306.70893   -65.578907    426.93058    34083          467 
 1929000    306.62911   -68.772441    374.31598    34026          410 
 1930000    288.38212   -65.143226    355.58283    34030          414 
 1931000    293.69934   -63.539833    378.45696    34049          433 
 1932000     294.5964   -56.602547    391.14901    34062          446 
 1933000    277.25027   -59.402679    347.04255    34036          420 
 1934000    295.36588   -48.135916    361.57199    34026          410 
 1935000    297.70961   -53.498103    351.96782    34013          397 
 1936000    314.97712   -61.796939    411.96174    34055          439 
 1937000    309.65632   -56.468066    394.16953    34044          428 
 1938000    292.77386   -56.054037    356.52239    34025          409 
 1939000    310.58786    -50.47448    377.20693    34024          408 
 1940000    288.25817   -47.977512    347.53557    34021          405 
 1941000    284.97042   -49.915488     354.5156    34034          418 
 1942000    270.84827   -49.799344    341.90167    34038          422 
 1943000    283.44928   -54.902883    349.55557    34029          413 
 1944000    294.79808   -48.873163    343.01338    34007          391 
 1945000    289.33011   -52.137851    361.82831    34036          420 
 1946000    286.05311   -53.417195    336.10836    34010          394 
 1947000    282.89554   -56.006783     370.1493    34055          439 
 1948000    312.89811    -49.38937    390.58327    34035          419 
 1949000    311.93302   -49.807278    358.54159    34002          386 
 1950000    284.67449   -50.226722    362.61885    34044          428 
 1951000    298.33904   -52.792292    361.91805    34023          407 
 1952000    291.66238   -49.444071    364.63246    34036          420 
 1953000    300.36579   -56.152157    385.33003    34047          431 
 1954000    306.23015   -59.015253    377.06926    34029          413 
 1955000    289.21007   -44.475008    348.90271    34021          405 
 1956000    281.68438   -43.434807     344.2042    34024          408 
 1957000     290.8608   -49.022993    347.14731    34017          401 
 1958000    292.02248   -46.937835    356.37389    34025          409 
 1959000    297.80755   -45.254182    358.32075    34018          402 
 1960000    276.20102   -57.442092    335.86373    34023          407 
 1961000    278.22436   -59.796992    382.15574    34076          460 
 1962000    290.13968   -60.661856    361.04188    34033          417 
 1963000    286.13931   -51.514164     347.5901    34024          408 
 1964000    304.91423   -45.291351    371.66841    34025          409 
 1965000    301.84903   -52.506035    388.75696    34049          433 
 1966000    290.22228   -52.874706    376.65371    34051          435 
 1967000    311.48334   -50.902454    417.87274    34067          451 
 1968000     281.2726   -52.999912    349.69478    34032          416 
 1969000    277.93027    -54.46908    364.13883    34056          440 
 1970000    291.33276   -53.981644     342.2725    34011          395 
 1971000    286.92662   -60.198816    373.10936    34053          437 
 1972000    283.89889   -64.127942    374.26828    34059          443 
 1973000    294.05553   -61.511148    388.50452    34059          443 
 1974000    318.85068   -55.208584    394.16282    34031          415 
 1975000    311.65964   -54.053331    390.98974    34037          421 
 1976000    300.85272   -51.878583    376.73063    34037          421 
 1977000    314.72985    -49.64331    392.51584    34034          418 
 1978000    319.08636   -57.974937    415.20647    34053          437 
 1979000    291.85333   -50.087768    361.50857    34031          415 
 1980000    294.47049   -52.893855    359.14198    34025          409 
 1981000    275.67234   -52.840866    311.55218    33996          380 
 1982000     301.0154   -57.716679     368.8492    34028          412 
 1983000    296.06992    -51.50837    366.02279    34030          414 
 1984000    288.66693    -42.77958    337.15889    34008          392 
 1985000    281.29217   -49.622616    330.68107    34010          394 
 1986000    277.14206   -48.862124    323.19292    34007          391 
 1987000     291.4974   -57.185694    359.59955    34030          414 
 1988000     303.7783   -51.865679    366.36165    34021          405 
 1989000    280.75695   -53.123595    345.91828    34028          412 
 1990000    283.34567   -55.399683    332.76227    34010          394 
 1991000    294.32823   -57.698172    343.55625    34008          392 
 1992000    294.27284   -60.351816      347.923    34013          397 
 1993000    278.48119   -51.280004    320.35212    34002          386 
 1994000    297.34395   -51.748375    357.42658    34020          404 
 1995000     302.0748   -49.033387    381.86309    34037          421 
 1996000    290.18855   -44.210132    357.37983    34027          411 
 1997000    297.27725   -53.788562    388.47355    34055          439 
 1998000    304.46677   -47.961929    387.39242    34042          426 
 1999000     283.9713   -51.348926    376.29335    34059          443 
 2000000    272.42007   -53.794728      362.777    34062          446 
 2001000    298.37752   -54.013552    364.81543    34023          407 
 2002000    286.61215   -53.801054    351.69148    34027          411 
 2003000    267.04941   -49.552573     315.3398    34012          396 
 2004000    309.70437   -56.618309     378.2241    34026          410 
 2005000     281.6896   -62.544346    358.17236    34039          423 
 2006000    284.30759   -59.384335    344.39258    34023          407 
 2007000    295.40334   -57.034421    384.45761    34053          437 
 2008000    301.09031   -56.985534    384.02528    34044          428 
 2009000    268.03984   -62.301536    341.85169    34044          428 
 2010000    293.22882   -63.153025    390.24077    34063          447 
 2011000    286.18195   -57.532648    338.49947    34013          397 
 2012000    293.03203   -56.113484    344.93554    34010          394 
 2013000    302.65977   -58.948556    390.14332    34049          433 
 2014000    312.98421   -43.540427    378.11351    34022          406 
 2015000    299.02998   -52.023258    382.86939    34046          430 
 2016000    285.23586   -50.544576    330.86437    34006          390 
 2017000     285.3112   -52.498159    364.97874    34045          429 
 2018000    288.33454   -54.182944    332.13054    34001          385 
 2019000    279.08651   -50.299256    329.46034    34013          397 
 2020000    283.36644    -51.65327    322.40114    33995          379 
 2021000    303.01216   -58.374702     370.3177    34026          410 
 2022000    300.55507   -58.565766     383.2249    34043          427 
 2023000    286.48702   -62.781323    363.80517    34043          427 
 2024000    285.28561   -56.439958    376.28184    34059          443 
 2025000    294.74243   -59.025511     362.2681    34028          412 
 2026000    288.23676    -58.42299    385.32037    34065          449 
 2027000    314.92131   -64.893017     424.5559    34069          453 
 2028000    291.11522   -55.134616    392.68854    34067          451 
 2029000    277.99217   -60.577109    345.04498    34033          417 
 2030000    299.35657   -53.771461    369.37529    34027          411 
 2031000     295.1833   -63.685173    383.04509    34052          436 
 2032000    308.90974   -59.409203    389.45575    34039          423 
 2033000    294.09836   -53.683642    379.83621    34050          434 
 2034000    284.38908   -65.577619    343.01061    34021          405 
 2035000    288.30428    -58.00204    365.06383    34041          425 
 2036000     293.8983   -58.354915    329.10238    33992          376 
 2037000    295.26808   -53.163122    351.34091    34015          399 
 2038000    301.10651   -48.992779    368.11736    34026          410 
 2039000    275.64932   -56.682772    329.39713    34017          401 
 2040000    272.60602   -49.167271    313.23333    34002          386 
 2041000    306.26107   -57.941931    360.22135    34011          395 
 2042000    306.50268   -56.495948    389.67695    34043          427 
 2043000    297.50308   -60.526353    357.81912    34020          404 
 2044000    298.35328   -66.042407    389.57916    34054          438 
 2045000    288.85488    -66.02497    385.64256    34064          448 
 2046000    282.52646   -55.879935    348.71257    34029          413 
 2047000    294.18937   -60.398672    352.07423    34018          402 
 2048000    286.55012   -59.396943    385.95604    34067          451 
 2049000    287.28268   -71.103594    383.96364    34065          449 
 2050000    278.02528   -64.202452    343.02473    34030          414 
 2051000    301.93992   -57.219065    380.87616    34039          423 
 2052000    317.46407   -56.573252     415.8893    34056          440 
 2053000    316.83687   -49.878657    408.20805    34048          432 
 2054000    292.77865   -43.763459    382.95452    34055          439 
 2055000    309.18903   -47.299663    362.76272    34010          394 
 2056000    286.86315    -49.17477    363.47773    34042          426 
 2057000    299.28734   -48.524022    372.25378    34034          418 
 2058000    306.60617   -44.970003    386.20058    34039          423 
 2059000    313.92148   -52.325072    410.55035    34055          439 
 2060000    282.33676    -50.46015    358.08654    34040          424 
 2061000    301.41099   -52.914991    363.50732    34021          405 
 2062000    273.92289   -67.157681    317.82595    34004          388 
 2063000    291.84974   -48.318189      370.455    34041          425 
 2064000    296.66529   -47.239909    376.52865    34042          426 
 2065000    304.45335   -51.283803    380.04011    34035          419 
 2066000    273.01631   -64.421601    333.87663    34027          411 
 2067000    285.72277   -63.177264    361.35008    34041          425 
 2068000     311.2561   -59.363408     385.3556    34032          416 
 2069000    286.36231   -53.378327    349.48865    34026          410 
 2070000    289.73985   -55.635522    379.61471    34056          440 
 2071000    284.81807   -50.743458    331.09988    34006          390 
 2072000    282.73308   -51.246642    325.05833    34001          385 
 2073000    311.67464   -49.340787    365.29043    34010          394 
 2074000    300.97021   -53.027075    339.71997    33995          379 
 2075000    289.77868   -53.334005    344.71997    34015          399 
 2076000    276.05775   -55.669635    334.09374    34022          406 
 2077000    319.28038   -51.039427    383.44966    34019          403 
 2078000    286.52245   -48.027601    365.91489    34045          429 
 2079000    288.31325   -47.172146    319.55821    33988          372 
 2080000    295.39991   -46.328413    326.83293    33987          371 
 2081000    289.74839   -46.683582    343.24967    34013          397 
 2082000    280.43034   -47.320642    314.57258    33991          375 
 2083000    299.76917   -42.885518    351.02826    34009          393 
 2084000    269.44619   -52.973033    361.31486    34066          450 
 2085000    289.76874    -43.21061    342.86866    34013          397 
 2086000    305.13936   -36.616119    356.54744    34008          392 
 2087000    299.13561   -46.167683     355.5844    34015          399 
 2088000     284.5786   -39.331511     368.4611    34051          435 
 2089000    284.46143   -40.465177    371.38573    34053          437 
 2090000    308.80833   -47.261786    405.75488    34057          441 
 2091000    307.61037   -42.909247    387.01853    34038          422 
 2092000    294.10803   -51.720282    379.69794    34049          433 
 2093000    288.38898   -48.009389    359.12452    34034          418 
 2094000    286.61361   -41.281806    323.21595    33994          378 
 2095000    301.76217   -42.593545     349.9194    34004          388 
 2096000    294.24113   -47.135638    355.60881    34022          406 
 2097000    298.22085   -43.659592    380.20034    34044          428 
 2098000    276.70739   -42.583343    324.25855    34008          392 
 2099000    305.52787   -42.430822    356.96752    34007          391 
 2100000    296.82675   -40.141322    368.18059    34033          417 
 2101000     281.5361   -47.016053     346.0743    34029          413 
 2102000    288.99415   -45.617556    367.38858    34043          427 
 2103000    301.03364   -48.164131     396.0623    34058          442 
 2104000    291.50018   -42.224869    361.18325    34032          416 
 2105000    318.11249   -44.340501    349.66282    33985          369 
 2106000    271.75241   -50.401187    316.99425    34008          392 
 2107000    291.75818   -55.983515    369.29586    34041          425 
 2108000    299.69951   -48.922018    380.09242    34042          426 
 2109000    289.36073   -48.477328     342.6105    34013          397 
 2110000    282.91486   -56.197681    359.40672    34043          427 
 2111000    277.31477    -46.80389    366.93517    34060          444 
 2112000    282.66992   -41.839901    334.60784    34014          398 
 2113000    291.27837   -49.067928    343.25184    34012          396 
 2114000    287.74964   -47.017694    364.61237    34042          426 
 2115000    310.60527   -52.660189    394.36763    34041          425 
 2116000    286.98316   -55.005586     346.4375    34021          405 
 2117000    289.40349   -53.550798    343.26282    34014          398 
 2118000    298.17534    -54.76159    391.05025    34056          440 
 2119000    297.84218   -50.949697    357.84314    34018          402 
 2120000    308.96831   -45.171507    384.99704    34034          418 
 2121000    262.05247   -48.468246    321.99348    34028          412 
 2122000    295.46435   -51.233827    405.36382    34076          460 
 2123000    282.81039   -54.491882     368.3377    34052          436 
 2124000    294.08573   -43.962742    352.49312    34017          401 
 2125000    288.85163   -58.109424    350.57866    34022          406 
 2126000    265.05235   -52.491953    316.58226    34017          401 
 2127000    285.11497   -48.041733    349.64748    34028          412 
 2128000    294.52681   -58.129163    365.85803    34033          417 
 2129000    278.17651   -53.946378    337.32016    34023          407 
 2130000    296.04549   -54.991241    362.37606    34026          410 
 2131000    306.70352   -62.177938    383.36561    34036          420 
 2132000    267.36675   -58.836993    325.01431    34024          408 
 2133000    286.31393   -62.384803    358.02487    34035          419 
 2134000    311.16988   -68.483053    388.98141    34035          419 
 2135000    298.65554   -58.381164    356.09692    34016          400 
 2136000     288.5886   -60.039112    335.88025    34007          391 
 2137000    274.39115   -54.523549    332.62742    34022          406 
 2138000    283.50396   -58.694521    349.92662    34031          415 
 2139000    279.49498   -52.526911    360.09241    34049          433 
 2140000    285.78162   -53.003318    347.44604    34023          407 
 2141000    289.80995   -47.249542    359.63204    34029          413 
 2142000    294.66432   -55.091377    350.19056    34014          398 
 2143000    288.41239   -50.974893    361.16652    34034          418 
 2144000    293.78269   -56.301373    365.28744    34032          416 
 2145000    295.91401   -57.769916    383.41674    34050          434 
 2146000    288.18053   -57.676214    354.35685    34029          413 
 2147000    293.90721   -50.248582    360.23965    34028          412 
 2148000    295.06864   -50.143535    369.92108    34037          421 
 2149000    320.07381   -48.343594    361.91807    33996          380 
 2150000     303.6874   -50.715629    356.75897    34011          395 
 2151000    261.18007   -49.618001    286.76243    33984          368 
 2152000    268.67773   -43.993809    295.60587    33986          370 
 2153000    279.86596   -54.019229    366.37081    34056          440 
 2154000    297.25189   -47.376877    408.14517    34077          461 
 2155000    307.37206   -50.392641    365.60105    34015          399 
 2156000    291.72134   -54.117148    376.39317    34048          432 
 2157000    282.56386   -47.231152     352.9183    34035          419 
 2158000    306.15076   -59.695841    377.55067    34030          414 
 2159000    283.74464   -55.680398    360.90338    34042          426 
 2160000    309.21164   -59.442366    402.46834    34053          437 
 2161000    295.26645   -60.383298    379.94294    34048          432 
 2162000     303.3128   -57.829096    383.44572    34041          425 
 2163000     296.5704   -58.080606    352.67835    34015          399 
 2164000    281.92856   -53.292307    337.61638    34018          402 
 2165000    323.16044   -50.976062    386.10517    34017          401 
 2166000    302.69792   -49.939156    383.66853    34042          426 
 2167000    304.34505   -50.783242    353.98634    34007          391 
 2168000    300.80658   -48.885156    361.91661    34019          403 
 2169000    303.66911    -56.41279     353.0718    34007          391 
 2170000    290.86356   -46.679856    329.18748    33996          380 
 2171000    294.76462   -54.757583    361.00872    34025          409 
 2172000    298.78637   -51.115889    343.50178    34002          386 
 2173000    293.99692   -50.107489    350.35608    34016          400 
 2174000    302.49968   -51.572382    369.24949    34025          409 
 2175000     282.5264   -57.965833    376.85113    34064          448 
 2176000    305.59148   -45.675525    384.63157    34037          421 
 2177000     259.0031   -50.995069    323.12921    34033          417 
 2178000     292.4886    -52.28731    377.91045    34050          434 
 2179000    282.02669   -50.468725    360.50037    34045          429 
 2180000    301.27971   -54.713542    390.20075    34050          434 
 2181000    278.19106   -60.409664    323.13217    34006          390 
 2182000    295.10128    -49.14448    372.16012    34037          421 
 2183000    266.60823   -54.317479    330.22587    34031          415 
 2184000    294.04849   -45.650305    360.12244    34027          411 
 2185000    303.74133   -43.264825    365.59889    34020          404 
 2186000    293.13758   -53.904714    393.46472    34065          449 
 2187000    285.27984   -44.200095    360.13027    34040          424 
 2188000    299.19293   -47.029217    372.93383    34034          418 
 2189000    271.44056   -46.692617    323.76796    34012          396 
 2190000    294.50283    -56.78915    390.41741    34061          445 
 2191000    294.06695   -53.746847    384.59282    34055          439 
 2192000    294.97166   -51.169165    368.97997    34036          420 
 2193000     295.4238   -52.505745    395.84956    34066          450 
 2194000    275.54966   -58.502607    377.31827    34076          460 
 2195000    298.81883   -49.200424    381.97168    34043          427 
 2196000     294.2815    -52.66185    373.59274    34042          426 
 2197000    299.29376   -46.410856    351.51325    34008          392 
 2198000    283.28808   -38.570576    320.05619    33996          380 
 2199000    287.95158   -43.158597    299.21259    33965          349 
 2200000    290.18294   -45.743524    332.45335    34001          385 
 2201000     306.1024   -45.688065    360.67785    34011          395 
 2202000    307.38619   -55.104521     384.9653    34037          421 
 2203000    272.50364   -53.484173      323.711    34014          398 
 2204000    297.81003   -48.528415    362.13163    34023          407 
 2205000    302.47194   -51.251469    364.79103    34021          405 
 2206000    281.23285   -51.471421     357.8733    34043          427 
 2207000    299.35757   -51.393285    369.04691    34030          414 
 2208000    298.84103   -50.608313    360.50271    34020          404 
 2209000    311.35599   -47.287924    394.81149    34042          426 
 2210000    291.84617   -54.186179    358.67109    34029          413 
 2211000    281.00191    -56.36515    368.40961    34056          440 
 2212000    286.59588   -43.884914    328.08926    34000          384 
 2213000    291.25313   -43.301174    366.99068    34039          423 
 2214000    294.25707   -44.446303     371.7149    34040          424 
 2215000    256.86951   -44.925697     306.9138    34017          401 
 2216000    287.57568   -44.704541    356.04086    34031          415 
 2217000    279.87484   -51.461811    328.00657    34010          394 
 2218000    300.80645   -48.686992    365.81027    34024          408 
 2219000     295.6765   -49.794621      367.888    34034          418 
 2220000    280.38977   -52.494444    329.27728    34010          394 
 2221000    305.81576   -45.814182     378.6838    34032          416 
 2222000    284.89334   -50.849647    375.52854    34059          443 
 2223000    300.47811   -41.910496    335.67713    33991          375 
 2224000    297.02398   -50.915797    340.42604    34001          385 
 2225000    265.82554   -47.554514    317.98644    34018          402 
 2226000    295.03604   -45.922261     334.7418    33997          381 
 2227000    296.15158   -44.657592    345.04211    34007          391 
 2228000     273.8562   -48.184091    341.27274    34034          418 
 2229000    285.73627   -49.091101    355.42335    34034          418 
 2230000    302.90289   -59.336749    389.95632    34048          432 
 2231000    297.95863    -54.10617     371.0202    34033          417 
 2232000    283.29591   -48.796694    381.48526    34068          452 
 2233000    296.76412   -49.724073    365.31862    34029          413 
 2234000    278.97534   -48.752382    371.01226    34063          447 
 2235000    292.57823   -47.937096    358.92462    34028          412 
 2236000    295.97067    -50.95579    370.69887    34037          421 
 2237000     290.9463   -49.255842    359.58099    34029          413 
 2238000    300.54046   -45.271952    354.71267    34012          396 
 2239000    304.72599   -44.907076    373.05839    34026          410 
 2240000    287.41111    -54.15267    371.86004    34050          434 
 2241000    290.76712   -49.404744    330.60008    33998          382 
 2242000    296.00808   -53.154091    339.23652    34000          384 
 2243000    300.03299   -48.677318    347.56636    34005          389 
 2244000    290.23872   -46.554183      342.063    34012          396 
 2245000    291.39232   -42.743124    356.43125    34027          411 
 2246000    315.12101   -48.651089    391.53103    34032          416 
 2247000    300.34553   -54.101825    371.41316    34031          415 
 2248000    298.68476   -58.338265    377.90116    34041          425 
 2249000    300.63578   -49.374465    359.69275    34017          401 
 2250000    290.55117   -49.344725    349.24972    34019          403 
 2251000    288.67085   -54.876344    342.70257    34015          399 
 2252000    287.31353   -52.579281    342.55027    34015          399 
 2253000    293.84584   -52.561329    371.39796    34040          424 
 2254000    289.57647   -48.628693    375.36471    34051          435 
 2255000    292.62351   -48.120126    390.05878    34064          448 
 2256000    274.32538   -49.587763    332.06577    34022          406 
 2257000      265.222     -39.9676    294.27912    33988          372 
 2258000    285.91725   -45.706726    353.35498    34031          415 
 2259000    289.42517     -50.1908    338.44156    34007          391 
 2260000    286.59301   -53.968752    361.38145    34040          424 
 2261000    293.08073   -48.829328    384.02428    34055          439 
 2262000     289.9302   -46.936581    356.80921    34029          413 
 2263000    304.66452   -51.107584    392.51549    34049          433 
 2264000    283.57559   -55.994767    367.31816    34050          434 
 2265000    276.18598   -53.446129    330.83202    34018          402 
 2266000    309.90927   -64.501197    384.94178    34032          416 
 2267000     286.3641   -52.129897    344.96433    34019          403 
 2268000    283.01053   -56.094834    341.86341    34022          406 
 2269000    291.40154   -59.245296    371.39366    34044          428 
 2270000    284.12418   -65.323244    350.13612    34029          413 
 2271000    281.37942   -62.356843    351.54878    34036          420 
 2272000    300.21295   -60.925038    409.06314    34074          458 
 2273000    306.24057   -59.065951    409.88109    34065          449 
 2274000    294.39093   -57.381727    372.80542    34040          424 
 2275000    300.13478   -58.496102    382.90278    34041          425 
 2276000    296.34766   -69.118844    382.83004    34048          432 
 2277000     293.0559   -64.788819    382.46762    34054          438 
 2278000    307.98618   -59.140343    403.56295    34056          440 
 2279000    292.14323   -58.007891    369.87172    34041          425 
 2280000    287.03279   -55.974202    347.88057    34023          407 
 2281000     304.1623   -52.308742    379.41524    34034          418 
 2282000    300.57743    -52.26443    371.05312    34030          414 
 2283000     288.3529    -53.85621     342.0677    34014          398 
 2284000    301.02043   -53.922829    372.86694    34032          416 
 2285000    303.58235   -63.239425    379.95635    34036          420 
 2286000    290.51832   -64.320831    374.86848    34049          433 
 2287000    290.68292   -61.432476    387.42701    34064          448 
 2288000    290.02903   -52.951446    383.14655    34060          444 
 2289000    300.36866    -63.91321     384.2313    34046          430 
 2290000    301.23533   -55.642459     368.6091    34027          411 
 2291000    309.70282   -48.845606    376.37822    34023          407 
 2292000    291.29209   -52.401146    379.06097    34052          436 
 2293000    279.56597   -57.090927    348.12588    34034          418 
 2294000    272.45291   -58.087437    363.91253    34063          447 
 2295000    269.67386   -71.366771    362.67613    34068          452 
 2296000    300.15994   -67.864006    385.45936    34047          431 
 2297000    302.32096   -59.012904    374.73637    34031          415 
 2298000     285.0405   -62.196893    384.47181    34069          453 
 2299000    286.80156   -54.746287    339.69406    34014          398 
 2300000    310.70713   -53.838446    403.10411    34052          436 
 2301000    308.13959    -62.51526    409.11096    34061          445 
 2302000    288.24547    -56.46749    326.75934    33997          381 
 2303000    290.14886    -51.35063    359.48877    34031          415 
 2304000    298.16765   -52.154158    364.94833    34025          409 
 2305000    292.23848   -50.189249    340.31723    34007          391 
 2306000    296.79123   -58.420335    370.78757    34036          420 
 2307000    276.46983   -60.159045    321.75379    34007          391 
 2308000    302.02797   -50.886782    352.23013    34007          391 
 2309000    284.12668   -49.168643     329.3479    34005          389 
 2310000    282.26881   -54.229641     318.2882    33995          379 
 2311000    308.76434   -56.266129     378.0313    34027          411 
 2312000    292.29074   -47.033987    370.64479    34042          426 
 2313000    275.44011   -45.782436    362.02783    34057          441 
 2314000    309.09719   -52.555343    388.28744    34035          419 
 2315000    283.05819   -46.270284    324.58621    34001          385 
 2316000    306.61937   -52.453872     377.6907    34028          412 
 2317000    284.76294   -50.146446    367.22392    34048          432 
 2318000    317.40682   -55.173323    381.60849    34019          403 
 2319000    260.24962   -56.324776    324.83648    34034          418 
 2320000    297.47435    -55.58763    389.45308    34056          440 
 2321000    283.32177   -61.279253    361.30268    34044          428 
 2322000     293.1428   -57.658023    368.10862    34038          422 
 2323000    309.20961   -65.615396    393.95385    34043          427 
 2324000    286.83084   -67.025501    396.38826    34080          464 
 2325000    303.59704   -63.816188    392.00501    34049          433 
 2326000    285.19556    -57.60614    367.88792    34049          433 
 2327000    299.26687   -52.211833    387.82727    34051          435 
 2328000    314.46601   -63.606193    407.32577    34050          434 
 2329000    288.98364   -58.147097    389.70941    34068          452 
 2330000    288.49925   -65.744199     408.9503    34092          476 
 2331000     309.2605   -66.563842    393.19267    34042          426 
 2332000    283.30745   -63.320006    362.34628    34044          428 
 2333000    283.37693    -52.47548    364.51615    34048          432 
 2334000    306.31486   -58.529674    412.46146    34067          451 
 2335000    317.48611   -49.752631     406.1537    34046          430 
 2336000    296.03951   -56.213821    367.34388    34032          416 
 2337000    284.14725   -50.757541    328.78651    34004          388 
 2338000    302.29463   -52.244402    373.40618    34031          415 
 2339000    296.00348   -52.525289    345.03784    34008          392 
 2340000    303.31754   -57.361107    351.20335    34005          389 
 2341000    276.32367   -56.583052    338.94057    34028          412 
 2342000    285.20609   -53.425792     357.3279    34035          419 
 2343000    290.91953   -63.780911    372.97822    34047          431 
 2344000    274.05924    -57.72785     355.5679    34052          436 
 2345000    303.50032   -48.498193    369.87827    34025          409 
 2346000    284.53204   -49.646483    342.93069    34021          405 
 2347000    290.59527   -44.775517    357.84151    34030          414 
 2348000     298.9938   -40.928003    364.62662    34025          409 
 2349000    283.87009   -44.358692    352.10598    34033          417 
 2350000    292.56166   -47.428154    332.77228    33998          382 
 2351000    306.35049   -44.946563    349.99142    34000          384 
 2352000    307.22176   -47.225027    371.29819    34022          406 
 2353000    284.82755   -53.178944    355.28778    34035          419 
 2354000    307.01516   -56.978983    373.58488    34025          409 
 2355000    300.90011   -55.937122    388.77933    34050          434 
 2356000    294.46806   -54.769686    359.92113    34026          410 
 2357000    289.07134    -53.73406    350.85412    34024          408 
 2358000    302.87843     -54.1672    395.56303    34055          439 
 2359000    291.11111   -60.385775    382.57726    34057          441 
 2360000    284.28623   -57.637162    395.52363    34083          467 
 2361000     292.1287   -55.217488    381.85146    34055          439 
 2362000    290.00394    -55.53653    351.54676    34023          407 
 2363000    311.49917   -53.863628    376.79612    34022          406 
 2364000    299.75647   -55.861497    358.57687    34018          402 
 2365000    290.16916   -52.033137    336.24457    34005          389 
 2366000    277.10371    -54.15523     341.0235    34029          413 
 2367000    294.73765    -50.70278    339.71605    34002          386 
 2368000    304.43896   -50.554869    370.69841    34025          409 
 2369000    277.97989   -51.748065    333.52665    34017          401 
 2370000    294.96681   -56.148636    345.63209    34009          393 
 2371000    300.39969   -57.396369    369.53624    34029          413 
 2372000    307.73192   -59.389784    379.70911    34030          414 
 2373000    279.98037   -52.795439    335.98051    34019          403 
 2374000     289.1339   -52.080059    360.33574    34035          419 
 2375000    286.90369   -61.118265    372.01456    34051          435 
 2376000    286.39509   -71.073936    397.27821    34082          466 
 2377000    314.65666   -59.272131    438.50863    34084          468 
 2378000    284.39368   -55.200079      362.985    34044          428 
 2379000    276.09421   -60.076462    357.15413    34049          433 
 2380000    288.52965   -58.429809    354.46314    34029          413 
 2381000    315.97187   -58.374577    396.00073    34036          420 
 2382000    290.24698   -68.299697    372.03688    34046          430 
 2383000    281.81157   -62.987456    372.35723    34060          444 
 2384000    286.58515   -60.408356    350.39955    34026          410 
 2385000     291.7448   -61.331589    359.54487    34027          411 
 2386000    300.37311   -63.491094    390.90187    34053          437 
 2387000    277.34737   -58.857429    348.37318    34038          422 
 2388000    281.92892   -60.964577    366.19786    34052          436 
 2389000    290.94919   -64.517883    352.52493    34023          407 
 2390000    303.53395   -54.623687    374.46151    34030          414 
 2391000    285.06782   -54.313323    355.69743    34035          419 
 2392000    309.42041   -56.796771    408.30452    34059          443 
 2393000    281.45958   -59.413405    369.53943    34057          441 
 2394000    293.91726   -62.861382    374.50173    34044          428 
 2395000    307.30221   -57.668727    410.46021    34064          448 
 2396000    303.79771   -63.844926    379.57875    34036          420 
 2397000    289.12764   -62.710728    354.06861    34027          411 
 2398000    281.41745   -55.232173    340.86827    34022          406 
 2399000    275.98341    -54.42003     328.6826    34016          400 
 2400000    292.19726   -63.143657    368.64023    34039          423 
 2401000    278.70637   -50.805201    370.08679    34061          445 
 2402000    273.67074   -56.098284    331.81302    34023          407 
 2403000     304.1627   -50.394679    362.60695    34016          400 
 2404000    288.55769   -53.828525    340.97963    34013          397 
 2405000    288.58428   -50.554243    327.58401    33997          381 
 2406000    283.79997    -46.10478    342.99757    34022          406 
 2407000    299.71261   -55.699639    365.06024    34024          408 
 2408000    304.75924   -57.288525    381.16338    34036          420 
 2409000     291.8266   -52.987855    352.52327    34022          406 
 2410000    287.65256   -48.289935    365.46173    34042          426 
 2411000    299.14783   -54.291567    349.68895    34009          393 
 2412000    289.38799    -44.91941    334.89388    34004          388 
 2413000    299.51617   -53.523496     352.0625    34011          395 
 2414000     283.7013   -47.947758    337.01098    34015          399 
 2415000     314.9616   -47.112653    383.16099    34025          409 
 2416000    282.76853   -48.508492    314.85666    33990          374 
 2417000    297.60916    -46.66714    362.11849    34025          409 
 2418000    285.57698   -51.124565    367.99652    34049          433 
 2419000    277.03341   -46.794932    334.66953    34022          406 
 2420000    293.90659   -54.256645    357.59328    34025          409 
 2421000    288.30151    -48.36573    361.38451    34037          421 
 2422000    282.52718   -48.442754    350.11277    34032          416 
 2423000    273.03968    -44.01455    313.63261    34001          385 
 2424000    296.68375   -44.947795    341.65565    34003          387 
 2425000    280.34675   -53.297524    309.43571    33985          369 
 2426000    289.88674   -56.494728    372.90677    34048          432 
 2427000    282.52707   -48.177919    340.21878    34020          404 
 2428000    279.35098   -44.938275    345.20144    34030          414 
 2429000    285.02219    -44.49068    317.33068    33990          374 
 2430000    288.26495    -53.54843    324.46378    33993          377 
 2431000    288.01362   -52.920341     337.9515    34008          392 
 2432000    302.83707   -47.529058    342.58507    33996          380 
 2433000    296.41308   -42.221363    342.84152    34004          388 
 2434000    290.05184   -51.169156    344.01482    34013          397 
 2435000    289.56639   -57.596967    341.40601    34011          395 
 2436000    286.43895   -53.107404    347.06411    34022          406 
 2437000    289.43716   -49.128256    340.60194    34011          395 
 2438000    307.18652   -49.610471    354.69808    34004          388 
 2439000    274.08574   -46.489305    327.79314    34016          400 
 2440000    295.14265   -42.406864    349.17979    34013          397 
 2441000    293.74157   -56.756783    363.81743    34031          415 
 2442000    280.36181    -54.33715    336.48817    34017          401 
 2443000    287.59817   -54.828687     356.1586    34032          416 
 2444000    285.54792   -54.587692    364.54007    34043          427 
 2445000    304.56313    -60.61839    408.89534    34067          451 
 2446000    297.67452   -54.115857     378.2132    34042          426 
 2447000    304.78579   -56.685396     370.3825    34024          408 
 2448000    299.16727   -50.619164    350.66961    34008          392 
 2449000    284.67272   -55.359676    344.18731    34021          405 
 2450000    298.54955   -54.132042    401.90263    34067          451 
 2451000    308.25328   -50.612576    391.48199    34041          425 
 2452000     289.2611   -61.192549    378.39995    34054          438 
 2453000    306.44981   -56.424901    393.77367    34048          432 
 2454000    281.91386   -57.109677    355.60484    34040          424 
 2455000    303.40901    -54.62264    364.06082    34019          403 
 2456000    302.13765   -57.398077    357.20898    34013          397 
 2457000    294.91287   -55.619952    377.41689    34045          429 
 2458000    292.42499   -62.212863    380.11605    34052          436 
 2459000    282.06473   -66.875168    354.45447    34038          422 
 2460000    257.29255   -61.230022    335.05609    34050          434 
 2461000    292.71305   -51.104828    375.62032    34046          430 
 2462000    278.96721   -56.706229     374.6195    34067          451 
 2463000    304.78378   -58.737645     413.9474    34070          454 
 2464000    280.13003   -59.660366    363.55849    34049          433 
 2465000    303.17105   -49.058946     397.8032    34056          440 
 2466000    286.05905   -57.270566    354.20865    34029          413 
 2467000    291.26879   -67.153329    390.11773    34066          450 
 2468000    296.85427   -51.440193    380.87747    34047          431 
 2469000    289.33022   -53.928579    348.00715    34020          404 
 2470000    315.53318   -45.649735    372.36047    34012          396 
 2471000    297.55764    -56.15386    361.91067    34025          409 
 2472000    279.25014   -46.103803    343.48846    34027          411 
 2473000    297.49844   -58.936888    378.00743    34042          426 
 2474000      301.276   -61.918511    381.10451    34041          425 
 2475000    289.05154   -63.203943    369.03383    34043          427 
 2476000    322.46063   -55.072023    413.76948    34047          431 
 2477000    292.17111   -54.830906    376.21161    34047          431 
 2478000      271.615   -58.473062    342.53889    34039          423 
 2479000    296.11557   -61.091986    377.20886    34044          428 
 2480000    309.76518   -61.228231    414.74368    34065          449 
 2481000    311.23721   -54.685557    366.93719    34012          396 
 2482000    288.61892   -53.002585     352.1859    34026          410 
 2483000    314.88831   -55.910754    361.65836    34000          384 
 2484000    282.20682   -57.245287    379.58854    34068          452 
 2485000     292.4582   -61.676596    370.45074    34040          424 
 2486000    290.28284   -50.336904    341.32695    34009          393 
 2487000    319.56764   -53.851891    361.82973    33996          380 
 2488000    280.87452   -55.993749    341.34113    34024          408 
 2489000    297.44305   -51.514392    355.77673    34017          401 
 2490000    291.33508    -56.21433    353.25387    34020          404 
 2491000     266.0744   -59.218523    359.46968    34068          452 
 2492000    285.38605   -56.073409    355.78869    34034          418 
 2493000    294.10675   -60.836882    367.56768    34035          419 
 2494000     284.3718   -53.058576    344.27669    34023          407 
 2495000    283.41199   -53.162987    335.65057    34013          397 
 2496000    292.07345   -53.125281    343.44271    34011          395 
 2497000    293.95964   -59.335873    363.05728    34030          414 
 2498000    329.98654   -57.754008    394.59323    34017          401 
 2499000    293.11754   -59.840295    367.40942    34037          421 
 2500000    292.42782   -58.504517     398.0246    34073          457 
 2501000     283.3107   -53.389654    354.22966    34036          420 
 2502000    303.86048   -52.746926     358.7783    34012          396 
 2503000    306.40788   -57.313469    393.17088    34047          431 
 2504000    288.07796   -58.480168     333.8856    34005          389 
 2505000     315.6219   -46.434091    381.90213    34022          406 
 2506000    295.38777   -56.796795    377.25613    34043          427 
 2507000     282.1272   -63.206085    349.13289    34032          416 
 2508000    299.59253   -56.310816    381.25718    34043          427 
 2509000    303.50443   -70.050457    391.03159    34049          433 
 2510000    281.78946   -55.967213    352.93301    34036          420 
 2511000    287.08529   -62.193052    368.90077    34046          430 
 2512000    288.76615   -57.818403    349.76987    34023          407 
 2513000    306.01738   -49.507786    375.95198    34029          413 
 2514000    301.84989   -51.508847    371.89348    34030          414 
 2515000    268.83786   -43.318986    333.69454    34033          417 
 2516000    299.63672   -40.207919    362.07808    34021          405 
 2517000    305.96724   -43.044301    361.09583    34012          396 
 2518000    306.34368     -47.1964    387.56813    34041          425 
 2519000    266.94839   -50.781464    325.63749    34026          410 
 2520000    286.53173   -46.727764    315.09885    33985          369 
 2521000     286.1088   -49.520443    342.33226    34018          402 
 2522000    289.02921   -68.858058    376.59624    34054          438 
 2523000    302.38969   -49.221146    390.56511    34050          434 
 2524000    280.32914   -52.815492    344.90884    34029          413 
 2525000     300.8172    -57.09229    367.30555    34025          409 
 2526000    294.27241   -47.222644    368.39899    34036          420 
 2527000    306.46297   -46.021554    376.58729    34028          412 
 2528000    291.17238   -58.059064    379.53244    34051          435 
 2529000    305.45948   -56.749504    417.32631    34075          459 
 2530000    310.37404   -55.602234    405.69126    34055          439 
 2531000    303.74371   -54.857636    368.11527    34023          407 
 2532000    281.61127   -50.534089    333.03726    34013          397 
 2533000    303.55466   -51.457455    385.80468    34043          427 
 2534000    280.19429   -58.490511     342.1205    34025          409 
 2535000    305.12837   -51.103857    352.76981    34004          388 
 2536000    277.87187   -48.612259     326.6392    34011          395 
 2537000    286.53569   -47.824169    355.63248    34033          417 
 2538000    295.63383    -44.03554     337.4863    33999          383 
 2539000    286.27088   -45.717571     353.4026    34031          415 
 2540000    291.13439   -56.168542    357.94366    34028          412 
 2541000    307.91519   -47.153116    405.74405    34058          442 
 2542000    279.45386   -48.488642    354.31264    34041          425 
 2543000    304.39376   -51.077789    387.75956    34044          428 
 2544000    292.98331   -50.046612    363.04283    34032          416 
 2545000    289.55413    -47.45919    321.71228    33989          373 
 2546000     297.5617   -52.579074    358.58544    34021          405 
 2547000    277.01296   -54.142853    323.31895    34008          392 
 2548000    293.71701   -51.304485    356.30139    34022          406 
 2549000    300.16538   -46.463776    387.40589    34049          433 
 2550000    297.21867   -52.704771    399.32609    34067          451 
 2551000     286.5602   -53.778407    373.40487    34054          438 
 2552000    280.47238   -57.508486    353.26766    34038          422 
 2553000    283.01994    -57.27436    385.07594    34072          456 
 2554000    291.64877   -62.140626    386.84462    34061          445 
 2555000    300.35811   -61.743805    398.41586    34061          445 
 2556000    291.29691   -51.482346     357.8077    34029          413 
 2557000    284.73244   -52.873265    345.49524    34024          408 
 2558000    296.14788   -49.276839    350.16424    34013          397 
 2559000     303.9965   -44.042507    387.19332    34044          428 
 2560000    293.74152   -53.730406      362.823    34031          415 
 2561000     312.8318    -58.32832    405.35519    34050          434 
 2562000    294.65447   -53.596315    375.47726    34044          428 
 2563000    280.69633   -59.437452    359.53171    34045          429 
 2564000      295.055   -51.345883    361.90411    34026          410 
 2565000    301.45701   -64.165842    421.70109    34086          470 
 2566000    280.19108   -49.928764    352.69645    34036          420 
 2567000    269.76322   -51.685212    354.85888    34057          441 
 2568000    285.42507   -52.434654    364.19575    34044          428 
 2569000    282.92663   -44.466844    324.94483    34000          384 
 2570000     298.0045   -47.047123    342.17684    34002          386 
 2571000    291.61124   -46.641715    345.46811    34014          398 
 2572000     285.8289   -51.012661    336.54789    34012          396 
 2573000    305.13553   -54.959042    357.71784    34010          394 
 2574000    301.28629   -44.630393    353.74646    34010          394 
 2575000    283.20027   -46.543768    373.85254    34059          443 
 2576000    268.59198   -51.626158    341.07308    34043          427 
 2577000    288.10767   -46.609859    349.21803    34019          403 
 2578000    304.13656   -46.337325    388.96387    34045          429 
 2579000    289.06387    -50.49545    365.06848    34039          423 
 2580000    302.95374   -48.894642    361.63171    34017          401 
 2581000    281.08598   -44.250425    329.82193    34010          394 
 2582000    302.26424   -53.838792    372.16542    34030          414 
 2583000    297.59322   -57.051445    364.63167    34028          412 
 2584000    305.14198   -48.351038    370.55951    34024          408 
 2585000    291.52443   -52.643257    374.79642    34048          432 
 2586000    289.74463   -54.071839    367.13372    34041          425 
 2587000    299.86525   -49.048601    346.34048    34003          387 
 2588000    282.72255    -48.47478    357.69932    34040          424 
 2589000    311.18436    -55.75142     393.2539    34040          424 
 2590000    276.93048   -53.475827    347.01767    34036          420 
 2591000    283.54319   -56.092813    355.10196    34037          421 
 2592000    285.85438   -53.730632    371.05049    34052          436 
 2593000     305.4875   -51.306422    416.34534    34074          458 
 2594000    305.52734     -53.1982    391.99741    34047          431 
 2595000    301.14328   -50.861842    389.20042    34050          434 
 2596000    276.24556   -57.604251    362.65864    34056          440 
 2597000    280.20165   -55.262362    349.51023    34035          419 
 2598000    287.42732   -62.360462    351.27234    34026          410 
 2599000     308.5998   -61.704245    383.84543    34033          417 
 2600000    304.25731    -55.08564    374.09173    34029          413 
 2601000    280.77261   -54.542675    344.21898    34027          411 
 2602000    284.88327   -52.826917    326.19413    34001          385 
 2603000    286.10142   -60.466263    371.15195    34051          435 
 2604000    285.25102   -52.388167    357.00447    34036          420 
 2605000    311.92437   -50.458706    385.56173    34031          415 
 2606000    297.52765   -53.664873    408.24527    34077          461 
 2607000    278.38602   -51.409942    357.48516    34047          431 
 2608000    290.32835   -52.547806    332.39028    34000          384 
 2609000    286.21989   -58.399555    348.88009    34025          409 
 2610000    295.33538   -57.513103    375.99107    34044          428 
 2611000    305.32799   -59.395426    391.42481    34047          431 
 2612000     300.6303   -59.314336    407.51698    34068          452 
 2613000    284.16633   -56.962795    344.01487    34023          407 
 2614000    292.05936   -51.282122    368.44651    34039          423 
 2615000    295.63387   -59.874445    368.96965    34034          418 
 2616000    309.33097   -57.057375    386.28423    34034          418 
 2617000    282.79529   -54.360772     364.7009    34047          431 
 2618000    300.37854   -61.036581    394.76335    34057          441 
 2619000    298.37572   -65.333385    416.88419    34085          469 
 2620000    298.86523   -66.220945    395.68163    34061          445 
 2621000    290.97548   -58.665049    380.81213    34055          439 
 2622000    310.98492   -63.841298    387.63984    34034          418 
 2623000     294.3658   -55.790876    368.64951    34036          420 
 2624000    287.94863   -52.566713    354.95092    34029          413 
 2625000    297.13974   -51.346574    318.99807    33977          361 
 2626000    308.59002    -57.07467    379.06328    34027          411 
 2627000    302.58551   -58.222239    368.93729    34026          410 
 2628000    302.73909   -53.422041    389.12334    34048          432 
 2629000    299.77415   -54.726556    375.22788    34033          417 
 2630000    292.81632   -57.707926    364.27053    34034          418 
 2631000    304.42228   -55.398273    366.49092    34020          404 
 2632000    266.69425   -63.910923    336.88209    34040          424 
 2633000    302.18105    -58.53843    356.82336    34010          394 
 2634000    292.68407   -57.216481    356.01691    34025          409 
 2635000    308.01158   -60.749401    406.80274    34059          443 
 2636000    298.14103   -60.193747    395.51035    34062          446 
 2637000    288.23084   -63.167583    362.05563    34038          422 
 2638000    289.11571   -60.787275    358.72693    34033          417 
 2639000    295.82088    -52.26612    358.71843    34023          407 
 2640000    284.00125   -51.935952    352.46411    34032          416 
 2641000    276.51382   -54.326196    335.11427    34023          407 
 2642000    300.03135   -64.220748    396.74488    34060          444 
 2643000    294.46557   -52.949185    380.44776    34049          433 
 2644000    298.55131   -59.719542    362.31552    34024          408 
 2645000    292.60223   -54.485118    348.50788    34016          400 
 2646000    292.08973   -59.361406    361.20758    34029          413 
 2647000     300.6242   -54.371106    367.70903    34024          408 
 2648000    278.09658   -53.707583     322.6246    34000          384 
 2649000    287.49795   -46.439203    351.01191    34026          410 
 2650000    286.92263   -46.212358     339.8728    34014          398 
 2651000    310.53378   -47.709696    387.07666    34035          419 
 2652000    277.51282   -49.175835    353.24279    34043          427 
 2653000    299.52375    -49.52304    396.21859    34059          443 
 2654000    294.19386   -50.308359    360.09165    34027          411 
 2655000    290.32395   -49.386648    323.65344    33990          374 
 2656000    296.48988   -52.277375    355.59395    34018          402 
 2657000    297.42343   -63.233603    377.18189    34041          425 
 2658000    275.97449   -63.543129    375.83211    34071          455 
 2659000    294.33715   -53.458602    384.19859    34053          437 
 2660000    295.72454   -57.633083    342.72729    34004          388 
 2661000    277.62285   -66.161953       322.54    34006          390 
 2662000    288.61101   -60.592759    360.74024    34036          420 
 2663000    285.39914   -57.854332    384.23797    34068          452 
 2664000    288.26261   -59.674535    391.35541    34071          455 
 2665000    292.83392   -59.558305     386.0734    34058          442 
 2666000    300.31143   -56.889542    366.15738    34025          409 
 2667000     299.4537    -60.01148    381.16339    34043          427 
 2668000    301.12543   -63.543076    388.17594    34049          433 
 2669000    291.74377   -57.446208    372.43016    34045          429 
 2670000    301.61235    -56.50169    365.12774    34023          407 
 2671000    288.19553   -51.924646    324.91504    33993          377 
 2672000     285.9508   -55.031244    342.67083    34018          402 
 2673000    298.19856   -59.199985     367.1535    34028          412 
 2674000    288.72082   -51.388741    359.28389    34033          417 
 2675000    308.54619   -50.620601    379.81202    34029          413 
 2676000    293.97603   -50.369957    366.60604    34035          419 
 2677000    300.11617   -57.590634    370.30529    34030          414 
 2678000    300.90481    -51.64328    365.48583    34024          408 
 2679000    302.91736    -54.72731     364.9924    34021          405 
 2680000    295.54102   -46.628022    349.37787    34012          396 
 2681000     286.7318   -44.290579    330.00868    34003          387 
 2682000    321.76824    -37.71016    364.27134    33995          379 
 2683000    294.23839   -42.941731    350.62716    34015          399 
 2684000    281.98364    -40.90194    334.82158    34014          398 
 2685000    265.32476   -48.670191    324.10794    34025          409 
 2686000    292.08725   -53.230461    354.51527    34022          406 
 2687000    296.05424   -48.513563    358.00524    34022          406 
 2688000    298.77858   -44.816038    369.66397    34031          415 
 2689000    309.65881   -60.563391    383.72507    34032          416 
 2690000     290.6514   -57.850715    388.44004    34065          449 
 2691000    293.27792   -52.130703    378.69064    34050          434 
 2692000    290.64612    -52.67727    365.55468    34038          422 
 2693000    309.53911   -58.227372    387.95273    34037          421 
 2694000    267.53432   -58.997797    355.45833    34062          446 
 2695000    293.32127   -61.425038    385.58645    34056          440 
 2696000    306.23048   -54.540856    400.36315    34055          439 
 2697000    308.34086   -46.937356    369.97104    34019          403 
 2698000    281.98283   -52.762736    337.10646    34016          400 
 2699000    301.51742   -48.351971    374.17315    34032          416 
 2700000    294.11148   -46.962857    353.50574    34020          404 
 2701000    300.38639   -54.855543    381.35031    34042          426 
 2702000    274.36551   -56.198581    339.40291    34029          413 
 2703000    283.88865   -58.018744    349.61764    34029          413 
 2704000    297.59179   -55.987616    375.48857    34040          424 
 2705000     293.2188   -57.123096    373.29475    34043          427 
 2706000    288.90698   -63.351996    365.38401    34041          425 
 2707000    299.37801    -54.56273    371.02469    34032          416 
 2708000    309.14003    -51.50015    425.93386    34079          463 
 2709000    289.53317   -58.000531    339.94695    34010          394 
 2710000     290.1253   -49.022587    346.22006    34017          401 
 2711000    294.40372   -51.028231     336.2912    34000          384 
 2712000    299.95015   -49.919985    345.14328    34002          386 
 2713000     312.1041   -49.846989    375.06634    34018          402 
 2714000    297.44607   -48.071352    362.71422    34025          409 
 2715000    276.54625   -52.447827    327.93858    34014          398 
 2716000    284.91957    -49.45337    334.65537    34010          394 
 2717000    297.89546   -51.035043    360.04838    34021          405 
 2718000    311.99585   -43.949078    357.51646    34000          384 
 2719000    280.23592   -40.652967    327.07381    34007          391 
 2720000     289.3628   -54.175876    338.69867    34008          392 
 2721000    289.98015   -57.391911    350.00102    34021          405 
 2722000    292.61033    -51.43234     368.3428    34039          423 
 2723000    304.53093   -58.101566    386.56277    34042          426 
 2724000    287.52602   -59.171678    342.53773    34014          398 
 2725000    299.36327    -56.26822    348.57311    34007          391 
 2726000    286.09733   -58.601437    333.17693    34007          391 
 2727000    315.90929   -65.153139    403.71046    34045          429 
 2728000    300.86579   -64.664124    403.11863    34066          450 
 2729000    290.80666   -54.993176    364.80553    34037          421 
 2730000    293.67886   -54.208483    386.80384    34058          442 
 2731000     298.8457   -54.197344    388.42129    34051          435 
 2732000    291.13512   -55.049874    373.46123    34047          431 
 2733000    274.37561   -59.171566    337.08141    34029          413 
 2734000    295.59593   -47.594269    366.13083    34032          416 
 2735000    282.22095   -48.687834    326.84478    34005          389 
 2736000    300.10438   -55.294079    379.26396    34040          424 
 2737000    300.29251   -48.014499      374.488    34035          419 
 2738000    273.32178    -55.49282    349.67329    34046          430 
 2739000    306.21767   -50.712953    376.82933    34029          413 
 2740000    303.71831   -52.619295     359.5471    34014          398 
 2741000    291.45609   -51.318231    351.52304    34021          405 
 2742000    310.08684   -48.808168    374.79473    34021          405 
 2743000    281.68213   -45.241122    312.69559    33988          372 
 2744000    302.63111   -49.639077    330.60894    33983          367 
 2745000    278.76376   -43.449681    333.22645    34017          401 
 2746000    311.35386    -44.07004    368.70387    34012          396 
 2747000    301.58219     -43.3714    362.67852    34019          403 
 2748000    287.98504   -46.649415    370.22367    34048          432 
 2749000    274.32171   -51.515175    324.12525    34012          396 
 2750000    295.65321   -51.898432     354.6362    34016          400 
 2751000     304.1086   -45.990329    353.05021    34006          390 
 2752000    292.20077   -43.044446     319.9705    33984          368 
 2753000    289.50181   -51.111794    326.57703    33994          378 
 2754000    301.30021   -52.720897    385.87563    34046          430 
 2755000    304.77464   -52.371138    367.61495    34020          404 
 2756000    283.52638   -44.826076    345.30321    34024          408 
 2757000    289.38368    -51.76645    338.08058    34008          392 
 2758000    299.72706   -46.148754    371.82189    34033          417 
 2759000    294.76649   -49.051286    374.43928    34043          427 
 2760000    288.80435   -51.123728    362.73301    34038          422 
 2761000    268.12967   -58.630202    321.71481    34018          402 
 2762000    284.53833   -59.160534    367.04009    34047          431 
 2763000    287.42619   -60.205109    362.28236    34035          419 
 2764000    295.60176   -63.386577    366.11531    34031          415 
 2765000    300.77525   -58.302866    415.43637    34080          464 
 2766000    278.07791   -63.086277    358.47962    34049          433 
 2767000    288.65114   -63.576798    361.54802    34037          421 
 2768000    289.07914   -48.317873    333.32215    34002          386 
 2769000    304.37238   -55.176064    364.72196    34018          402 
 2770000    271.76942   -58.211869    299.76365    33987          371 
 2771000    300.13213   -52.449831    368.23572    34028          412 
 2772000     281.8943   -57.508026    336.34968    34016          400 
 2773000    283.28792   -50.761038    326.26268    34002          386 
 2774000    298.17541   -58.777841    363.04642    34025          409 
 2775000    307.63262   -55.706509    378.91199    34029          413 
 2776000    282.23705   -57.756394    362.49932    34047          431 
 2777000    305.21342   -55.559518    376.76616    34030          414 
 2778000    298.28482   -49.673407    368.11114    34029          413 
 2779000    286.13967   -55.171675    347.07846    34021          405 
 2780000    292.51582   -56.748901    365.34352    34035          419 
 2781000    301.66229    -58.43645    330.83428    33984          368 
 2782000    286.29918   -51.456424      350.771    34028          412 
 2783000    297.23004   -56.020198    355.28908    34016          400 
 2784000    277.95209   -56.222129    337.62843    34024          408 
 2785000    317.93439   -54.758481    383.24409    34021          405 
 2786000    286.65683   -64.145704    366.61118    34044          428 
 2787000    288.50733   -60.591286    359.18641    34032          416 
 2788000     296.5297   -60.164164    389.40824    34057          441 
 2789000    283.92602   -63.445146    360.33499    34042          426 
 2790000    311.99801    -54.06704    413.15374    34061          445 
 2791000    275.81736   -60.231176    351.39174    34044          428 
 2792000    272.34232   -53.522504    336.51891    34031          415 
 2793000    301.74132   -54.047158    407.08674    34069          453 
 2794000    312.51821   -53.934394    382.12325    34026          410 
 2795000    279.06878   -53.082048    328.71651    34012          396 
 2796000    273.63947   -57.515972    340.87912    34033          417 
 2797000    299.26781   -45.603544    358.82056    34019          403 
 2798000    298.81537   -56.774272    356.53252    34017          401 
 2799000    302.12021   -56.854405    350.40469    34006          390 
 2800000    280.72052   -45.742026    329.16988    34010          394 
 2801000    319.45553   -59.778871    409.22806    34046          430 
 2802000    291.58796   -68.896054    393.67174    34068          452 
 2803000     290.3345    -59.24681    359.20943    34031          415 
 2804000    301.79242    -56.13871    396.21364    34057          441 
 2805000    286.11035   -62.203139      365.367    34044          428 
 2806000    294.56738   -60.158373    383.18074    34052          436 
 2807000    315.63754   -56.932571    393.04889    34034          418 
 2808000    273.65785    -56.95664    329.51483    34020          404 
 2809000    304.25032   -53.767593    367.05745    34021          405 
 2810000    270.59544   -59.678608    339.14823    34036          420 
 2811000     272.9185   -60.205979    353.75991    34051          435 
 2812000    292.99709   -52.621226    366.83002    34037          421 
 2813000    287.85649   -62.384365    347.97033    34022          406 
 2814000     305.9274    -52.40326    369.88716    34021          405 
 2815000    279.09608   -53.548393    319.40561    33999          383 
 2816000      281.788    -53.90626    353.45463    34036          420 
 2817000    299.29593   -52.181718    366.50911    34027          411 
 2818000    305.59544   -51.245385    385.62668    34038          422 
 2819000     266.8471   -57.891569    306.38212    34002          386 
 2820000    289.80945   -58.493133    372.09023    34047          431 
 2821000    309.40505    -62.08086    394.44733    34040          424 
 2822000      271.872   -50.482113    321.36768    34013          397 
 2823000     284.7321   -51.375746    322.55625    33997          381 
 2824000    303.41125   -55.947521    379.46421    34035          419 
 2825000    295.43703   -52.944503    364.10683    34030          414 
 2826000    290.43606   -59.196675    351.71428    34023          407 
 2827000    285.05427   -61.189985    347.02583    34025          409 
 2828000    315.90981   -59.514871    399.69413    34040          424 
 2829000    280.10062    -64.59877    340.48738    34024          408 
 2830000    280.27276   -56.496033     362.8662    34051          435 
 2831000      286.685   -46.517552    358.31526    34035          419 
 2832000    295.02375   -53.812549    376.52154    34045          429 
 2833000    292.99556   -52.746731    338.36114    34004          388 
 2834000    288.20386   -55.401258    344.73019    34017          401 
 2835000    307.10539   -57.424508    409.83103    34063          447 
 2836000    282.36071   -56.245656    350.64967    34032          416 
 2837000    303.29711   -57.123864     373.4425    34029          413 
 2838000    305.94196   -59.581695    400.69824    34055          439 
 2839000    286.96721   -58.640955    386.36304    34068          452 
 2840000    307.94278   -48.877975    393.63329    34045          429 
 2841000    299.87604   -55.529347    385.00839    34047          431 
 2842000     299.1637   -51.974247    371.87996    34032          416 
 2843000    291.94637   -47.131646    350.65369    34019          403 
 2844000    281.55731   -50.698227    364.06675    34050          434 
 2845000    289.54449   -49.879457    353.96629    34026          410 
 2846000    310.23805   -43.214009    390.37275    34039          423 
 2847000    304.88016   -45.377891    373.88354    34028          412 
 2848000    299.27151   -49.538245    367.33426    34026          410 
 2849000    303.66114   -42.911072    357.58088    34010          394 
 2850000    306.65478   -55.893157    390.67563    34043          427 
 2851000     301.1314    -51.25142    369.67693    34028          412 
 2852000    297.48522   -49.601981    359.70505    34020          404 
 2853000    287.77091   -49.536444    350.48702    34025          409 
 2854000    299.77036   -46.924315    321.82881    33976          360 
 2855000    289.94262   -44.811221    335.61721    34005          389 
 2856000    283.83398   -53.685742    368.01596    34051          435 
 2857000     289.2168   -62.297495    352.94962    34025          409 
 2858000    281.54544   -57.805633    347.51014    34028          412 
 2859000    285.45191   -63.932497    353.93288    34032          416 
 2860000    290.61148    -46.59869    367.93252    34041          425 
 2861000    299.45786   -57.491729    372.59362    34033          417 
 2862000    283.83871   -48.669215    313.09504    33987          371 
 2863000    289.00168   -46.028522    327.39779    33997          381 
 2864000     300.5315   -43.322259    381.05419    34042          426 
 2865000    285.98384   -49.855668     324.8115    33997          381 
 2866000    302.38822   -55.632693    361.33979    34017          401 
 2867000    305.93285   -58.172907    387.15362    34041          425 
 2868000    301.07903   -58.662056    408.00121    34071          455 
 2869000    284.26077   -62.109622    364.56582    34045          429 
 2870000    306.23004   -61.966238    388.31218    34042          426 
 2871000    298.82651   -57.358079    384.11521    34048          432 
 2872000    298.23223   -63.264677    401.13494    34066          450 
 2873000    310.71108   -62.808581    416.45492    34065          449 
 2874000    281.50078   -57.742606    337.81216    34019          403 
 2875000    283.81116   -49.222699    354.87125    34036          420 
 2876000    294.90144   -59.640924    373.82978    34040          424 
 2877000    270.11208   -54.871053    338.41293    34035          419 
 2878000    309.06776   -51.048552    385.12391    34034          418 
 2879000    292.11325   -55.886641    366.68203    34038          422 
 2880000    305.26625   -51.570023    357.77003    34010          394 
 2881000     300.1973   -54.214313    371.45347    34032          416 
 2882000    310.05013   -56.202989    384.73756    34032          416 
 2883000    299.62344   -60.222479    368.86664    34028          412 
 2884000    275.81815   -69.885594    363.84329    34059          443 
 2885000    300.89001   -61.217184    399.30195    34062          446 
 2886000    303.62298   -57.892871    365.35538    34020          404 
 2887000      282.236     -59.6646    350.68261    34033          417 
 2888000    294.86174   -58.534109    353.31265    34018          402 
 2889000    304.10637   -52.547135    366.94121    34020          404 
 2890000    275.67304   -58.305235    340.62359    34031          415 
 2891000    287.26231   -52.876191    354.09017    34030          414 
 2892000    312.27793   -49.242529    362.67194    34006          390 
 2893000    298.57838    -47.32755    382.87757    34047          431 
 2894000     310.2866   -46.356439    380.65497    34028          412 
 2895000    288.56344   -58.381886    342.14992    34014          398 
 2896000    277.57062   -49.668879    332.44654    34017          401 
 2897000    298.29995   -50.414937    327.86153    33985          369 
 2898000    286.68396   -58.433677    340.87368    34015          399 
 2899000    303.82622   -55.588334    405.94174    34064          448 
 2900000    296.93281   -49.993514    355.95194    34018          402 
 2901000    279.63374   -47.177171    326.14354    34007          391 
 2902000    287.25728   -42.804499    343.63116    34018          402 
 2903000    296.74946   -55.752013    392.04142    34059          443 
 2904000    295.33711   -52.006375    372.43033    34040          424 
 2905000    298.61637   -48.343422    361.66901    34023          407 
 2906000    283.31244      -49.307    351.28218    34030          414 
 2907000    293.25535   -42.300436    327.25405    33991          375 
 2908000    292.84252   -45.610499    330.16457    33995          379 
 2909000    300.97526   -49.986964    359.93831    34018          402 
 2910000    287.78756   -52.780471    363.23919    34040          424 
 2911000    292.72991   -49.815336     351.8242    34018          402 
 2912000    299.80074    -44.61962    345.24965    34003          387 
 2913000    293.88061   -48.254845    346.90174    34012          396 
 2914000    305.01997   -50.103603    371.30765    34025          409 
 2915000    324.86728   -53.303279    394.60967    34023          407 
 2916000    275.89625   -56.014729    325.45324    34012          396 
 2917000    289.97246    -61.28286    371.50242    34046          430 
 2918000    285.24924   -47.849654    317.01721    33987          371 
 2919000    292.23173   -49.979512    338.36791    34004          388 
 2920000    287.11632    -47.81961    348.87295    34023          407 
 2921000    273.58989    -54.96083    336.68442    34029          413 
 2922000    296.46802   -42.287159    362.47175    34027          411 
 2923000    303.60438   -57.354785    368.95528    34023          407 
 2924000     279.0389   -39.979492    344.60191    34031          415 
 2925000    286.55907    -51.63223    349.84129    34026          410 
 2926000    278.75835   -45.197948    362.28474    34051          435 
 2927000    276.51385   -56.234355    331.38888    34018          402 
 2928000    305.97866   -48.470633    350.36748    33998          382 
 2929000    297.44857   -50.537531     358.3481    34021          405 
 2930000    286.41298   -53.968333    376.45476    34056          440 
 2931000    308.03543   -47.098834    362.57569    34011          395 
 2932000    302.88001   -44.739015    350.54131    34003          387 
 2933000     295.6228   -48.909599    343.94067    34007          391 
 2934000    256.15233   -47.603887    297.30705    34006          390 
 2935000    278.27846   -47.309408    335.17551    34021          405 
 2936000    312.25198   -41.389673    372.37565    34017          401 
 2937000    293.31656   -48.848673    358.52278    34027          411 
 2938000    288.55639   -48.157753    345.07425    34018          402 
 2939000    296.56407   -52.971705    353.94563    34016          400 
 2940000    299.10023   -59.365703      407.597    34073          457 
 2941000    289.90359   -53.208794    359.03319    34032          416 
 2942000    285.81058    -48.10932    359.24271    34038          422 
 2943000    293.23129   -50.694298    351.54973    34016          400 
 2944000    268.88396   -46.993967    331.46416    34030          414 
 2945000    287.96072   -45.968266    340.82891    34014          398 
 2946000    274.66889   -48.745758    329.80593    34019          403 
 2947000     293.3589   -45.500258    338.52599    34003          387 
 2948000    293.71988   -49.748261    337.36935    34002          386 
 2949000    291.38227   -45.611642    361.03377    34031          415 
 2950000    279.02896   -43.947747    326.98652    34010          394 
 2951000    266.89756   -43.348654    299.29733    33992          376 
 2952000    285.82876   -49.235081    339.26209    34015          399 
 2953000    293.89488   -48.952824    353.21781    34020          404 
 2954000    312.02041   -48.190497    384.33365    34030          414 
 2955000    301.52918   -52.311922    373.23872    34032          416 
 2956000    290.22171   -49.158313    357.60986    34029          413 
 2957000    296.67199   -48.662861    371.90991    34037          421 
 2958000    298.19242   -53.772001     380.7773    34044          428 
 2959000    281.02655   -53.849756    357.81057    34043          427 
 2960000    297.74703   -53.054563    397.16089    34062          446 
 2961000    295.09117   -60.531258    385.41896    34054          438 
 2962000    288.57121   -61.427071    384.18152    34062          446 
 2963000    298.68992   -50.655689    354.66302    34013          397 
 2964000    285.39642    -51.91986    340.46795    34017          401 
 2965000    290.81365   -55.480557    354.58087    34025          409 
 2966000    293.17161   -65.433317    360.84048    34028          412 
 2967000    288.82438   -61.500073    364.94148    34040          424 
 2968000     275.6838   -63.845625    332.15873    34021          405 
 2969000     278.8778   -58.865074    356.97749    34045          429 
 2970000     302.0121   -57.661388     379.7485    34037          421 
 2971000    295.59635   -59.965366    382.19699    34049          433 
 2972000    297.54297   -56.192198    339.97471    34000          384 
 2973000    306.79208   -59.492714    376.35937    34028          412 
 2974000    273.74836     -60.0488     351.4665    34045          429 
 2975000    315.25229   -54.125263    397.16103    34039          423 
 2976000    299.45397   -57.696333    401.50765    34066          450 
 2977000    303.88699   -60.775339    393.20773    34049          433 
 2978000    288.52987   -55.184927    363.92495    34040          424 
 2979000    257.03677   -53.705488    315.06805    34026          410 
 2980000    280.96236   -50.146787    350.26146    34035          419 
 2981000    293.40246   -48.132909    369.48526    34037          421 
 2982000    302.72093   -52.095943    386.36315    34045          429 
 2983000    278.96584   -50.962315    334.52257    34019          403 
 2984000    290.93809   -48.815908    352.28193    34022          406 
 2985000    304.72918   -47.482396    397.48485    34054          438 
 2986000    289.64522   -46.755488    354.24017    34027          411 
 2987000    270.22612   -46.193666     329.8659    34026          410 
 2988000    290.31379   -51.965856    342.11206    34012          396 
 2989000    289.27127   -55.208787    360.64223    34035          419 
 2990000     299.3362   -55.580182    354.68905    34014          398 
 2991000    290.35367   -54.963953    377.14126    34052          436 
 2992000    293.88125   -49.862403    368.42266    34036          420 
 2993000    281.91519    -58.99366    364.52686    34050          434 
 2994000    300.07941   -53.387844    375.83822    34036          420 
 2995000    295.59333   -57.848891     368.5972    34035          419 
 2996000    285.00208    -58.21518    347.25636    34024          408 
 2997000    293.83742   -54.037953    351.53676    34017          401 
 2998000    294.94289   -51.192977     375.6501    34044          428 
 2999000    303.28132   -54.073895    376.54436    34033          417 
 3000000    284.49372   -56.834365     357.2041    34037          421 
 3001000    279.11541   -51.001048    342.63627    34028          412 
 3002000    299.97808   -53.316539    356.23359    34015          399 
 3003000    307.47448    -53.13345    389.73649    34041          425 
 3004000    320.53228   -57.553356    398.83439    34034          418 
 3005000    304.53374   -50.655255    367.13688    34021          405 
 3006000    283.78002   -57.396926    366.49412    34049          433 
 3007000     328.1987   -55.813427    429.81842    34056          440 
 3008000    297.45426   -53.735238    375.36482    34040          424 
 3009000    286.00922   -53.103569    337.11974    34011          395 
 3010000    271.92336   -55.828447    322.69467    34014          398 
 3011000    305.35885   -58.280474    351.19774    34002          386 
 3012000    315.66849   -60.310629    376.29387    34016          400 
 3013000    296.75308   -53.587387    354.33404    34017          401 
 3014000    291.03243   -57.285238    375.19048    34049          433 
 3015000    275.67083   -50.245208    361.92806    34057          441 
 3016000    284.14413   -49.241666    318.82999    33992          376 
 3017000    305.09575   -57.183625    379.10824    34033          417 
 3018000    294.52196   -51.197862    354.58326    34020          404 
 3019000    287.74843    -50.87511     380.9532    34060          444 
 3020000    290.64686   -54.459824    389.46093    34066          450 
 3021000    278.93515     -61.0277    391.84758    34088          472 
 3022000     310.7648   -73.505074    437.28506    34089          473 
 3023000    291.60566   -48.857316    379.55389    34053          437 
 3024000    308.25925   -51.744957     404.5961    34057          441 
 3025000    290.13566   -56.018126     370.9112    34044          428 
 3026000    273.63116   -47.270324     334.4436    34025          409 
 3027000    280.85784    -51.78258      366.907    34055          439 
 3028000    285.08085     -49.7868     319.7239    33993          377 
 3029000    285.13208   -46.822788    356.58967    34036          420 
 3030000    292.12291   -52.613326    335.96674    34002          386 
 3031000    293.89403    -44.79016    345.45167    34010          394 
 3032000    306.28752   -50.297374    365.26809    34015          399 
 3033000    280.85137   -48.150803    343.42433    34027          411 
 3034000     314.4634   -55.939464    354.66653    33995          379 
 3035000    322.98553   -61.682783    405.42389    34037          421 
 3036000    296.10227   -51.456089    334.92323    33996          380 
 3037000    301.45577   -56.859769      341.299    33996          380 
 3038000    280.87782   -61.908988    332.83112    34014          398 
 3039000    274.09186   -56.837902    319.85797    34008          392 
 3040000    296.85288   -56.830986    358.74022    34022          406 
 3041000    282.15005   -56.513316    354.71175    34037          421 
 3042000    282.78558   -59.512806     355.9931    34039          423 
 3043000    296.52498   -54.538107    379.25857    34046          430 
 3044000    296.60357   -57.333057    362.25833    34026          410 
 3045000    285.93625    -55.74156    349.16092    34025          409 
 3046000    271.86218   -52.675633     338.5292    34034          418 
 3047000    303.64424   -54.003664    360.01688    34014          398 
 3048000    278.28414   -51.431386    321.28471    34004          388 
 3049000    301.48284   -53.242038    374.49842    34033          417 
 3050000    285.62348    -54.88962    375.20844    34057          441 
 3051000    295.36969   -55.287665    394.80075    34065          449 
 3052000    298.34583   -56.497075    366.42248    34024          408 
 3053000    311.14204   -56.170963    396.14911    34043          427 
 3054000    295.88316   -49.068982    373.38004    34040          424 
 3055000    268.19675   -61.921132    341.71822    34042          426 
 3056000    298.89974   -46.631186    357.59154    34018          402 
 3057000    300.01772   -51.303587    356.11554    34015          399 
 3058000     308.7667   -63.996791    386.01596    34036          420 
 3059000    266.89898   -62.888006    317.27644    34015          399 
 3060000    311.32046    -61.97099     413.7502    34060          444 
 3061000    284.10359   -55.551985    355.98105    34036          420 
 3062000    274.61466   -50.224358    352.73091    34047          431 
 3063000    293.63868   -51.055587    354.09895    34021          405 
 3064000    298.28054   -57.894919    388.67932    34054          438 
 3065000    283.17732   -55.432416    355.83676    34037          421 
 3066000    302.65701   -57.692785    374.46487    34032          416 
 3067000    300.75551     -62.8912    390.24697    34052          436 
 3068000    276.75806   -51.653195    336.47921    34024          408 
 3069000     287.7146   -55.480396    351.75862    34026          410 
 3070000    281.64792   -50.690104    362.93641    34049          433 
 3071000    272.69827   -47.087059    340.42036    34034          418 
 3072000    277.83404   -48.097892    350.43123    34038          422 
 3073000    296.19045   -47.600129    375.27008    34041          425 
 3074000     290.7587   -47.732464    369.04372    34042          426 
 3075000     291.6283   -49.300462    349.37438    34018          402 
 3076000    293.65941   -47.475247    362.64904    34031          415 
 3077000    294.75856   -53.992925    354.69109    34019          403 
 3078000      301.609   -45.253974    348.21726    34004          388 
 3079000    290.97426   -44.919864      350.995    34021          405 
 3080000    292.13548   -48.001127    320.62006    33985          369 
 3081000    264.56367     -51.7452    318.72493    34021          405 
 3082000    294.22927    -57.45314    362.84692    34030          414 
 3083000    299.52575   -61.926018    380.78343    34043          427 
 3084000    268.48959   -63.931387    345.02565    34048          432 
 3085000     287.7246   -55.096809    351.21154    34026          410 
 3086000    286.67884   -55.712681    349.63396    34026          410 
 3087000    300.15398   -52.191518    388.62191    34051          435 
 3088000    325.89472    -58.48577    408.91697    34037          421 
 3089000    283.23351   -50.499913    332.59281    34009          393 
 3090000    276.43025   -54.587181    332.10946    34020          404 
 3091000    301.20186   -55.971584    369.25345    34027          411 
 3092000    279.96897   -52.478122    305.26622    33981          365 
 3093000    308.65621   -45.380334    354.32574    34002          386 
 3094000    279.23427    -51.23332    331.42517    34015          399 
 3095000    292.07558   -49.590119     386.9948    34060          444 
 3096000     266.7452   -52.181005    353.03416    34058          442 
 3097000    287.69066    -46.92519    368.39503    34046          430 
 3098000    296.56824   -47.249391    365.36855    34030          414 
 3099000    275.63188   -44.662131     331.0613    34019          403 
 3100000    303.41056   -44.638595     388.3322    34046          430 
 3101000    304.94223   -46.632428    344.10492    33994          378 
 3102000    300.48413   -51.075003    357.83466    34016          400 
 3103000     293.5521   -48.604868    371.08131    34041          425 
 3104000    294.96368   -53.176267     358.1926    34024          408 
 3105000    293.41887   -46.220109    341.48204    34007          391 
 3106000    278.57335   -46.126747    341.64937    34028          412 
 3107000    283.92578   -52.274817    354.34846    34035          419 
 3108000    281.28375    -52.92315    353.53749    34038          422 
 3109000    274.17885   -50.455744     337.9316    34030          414 
 3110000    291.93277   -46.753049    357.77928    34027          411 
 3111000    284.06704   -55.895172     355.2176    34035          419 
 3112000    298.50731   -45.210008    359.79409    34021          405 
 3113000    308.02681   -43.076178      354.704    34002          386 
 3114000    268.11477   -44.129766    328.84491    34028          412 
 3115000    298.85472   -46.765233    394.16968    34059          443 
 3116000    295.06451   -46.853437    360.84449    34027          411 
 3117000    282.16648   -45.917011    341.18383    34022          406 
 3118000    320.04751   -52.058216    387.91158    34022          406 
 3119000    302.05544   -50.442835    356.82667    34013          397 
 3120000    284.84322   -46.732651    359.77585    34040          424 
 3121000    305.72565   -48.571204    355.59779    34007          391 
 3122000    288.48039   -42.347617    342.50776    34014          398 
 3123000    301.17196   -50.603385    376.59912    34034          418 
 3124000    279.95715   -56.129757    354.61125    34040          424 
 3125000    293.34546   -51.136444    366.45898    34035          419 
 3126000    294.23131   -47.523189    369.53368    34036          420 
 3127000    301.87849    -52.41674    362.13783    34019          403 
 3128000    285.79813   -52.285453    356.59827    34034          418 
 3129000    307.23586   -54.696185    396.71805    34050          434 
 3130000    297.48455   -59.589926    359.60675    34022          406 
 3131000    315.59647    -61.16255    409.73092    34052          436 
 3132000    279.91711   -49.242401    313.85263    33993          377 
 3133000    312.53024   -59.870169    377.82905    34022          406 
 3134000    280.07631   -52.998413    346.10468    34031          415 
 3135000    277.87268   -49.173885    332.30149    34017          401 
 3136000    280.11932   -53.358617    317.46293    33997          381 
 3137000    285.36667   -60.432157    355.68972    34034          418 
 3138000    284.90204   -54.150356    326.41047    34000          384 
 3139000    295.99484   -46.873882    330.89734    33991          375 
 3140000    302.44123   -55.269665    339.93477    33994          378 
 3141000    261.36243   -54.863194    309.90008    34014          398 
 3142000    284.10978   -53.169341    340.82283    34018          402 
 3143000    291.15767   -49.685362    357.68051    34029          413 
 3144000    298.57013   -48.857088    369.42593    34031          415 
 3145000    279.68826   -53.867915    358.01709    34046          430 
 3146000    306.07329   -48.150853    381.02088    34033          417 
 3147000     295.5953   -54.600999    362.92857    34028          412 
 3148000    300.66539   -52.289745     373.3343    34033          417 
 3149000    291.08795   -56.978684    352.43454    34023          407 
 3150000    286.71228   -47.527548    328.82093    33999          383 
 3151000    289.77532   -44.433038     338.1269    34008          392 
 3152000    295.06332   -51.615994    348.79549    34012          396 
 3153000    276.28049    -43.58652    330.07827    34017          401 
 3154000    284.73956   -57.519455    353.62438    34033          417 
 3155000    295.72713   -50.518946    352.87483    34017          401 
 3156000    274.18613   -48.348079     310.6951    33995          379 
 3157000    302.31156   -47.852926    392.07673    34051          435 
 3158000    288.67266   -53.303085    378.69635    34056          440 
 3159000    308.94773   -57.099202    410.82273    34062          446 
 3160000    284.45909   -55.711237    378.42794    34063          447 
 3161000    290.08029   -53.481095    365.81201    34039          423 
 3162000    296.23668   -57.553967     370.0486    34035          419 
 3163000    289.25161   -56.708207     361.3476    34035          419 
 3164000    306.75439   -51.470657    376.10487    34027          411 
 3165000      312.098   -56.421962    388.68757    34033          417 
 3166000    292.17342   -61.505371    336.35797    34003          387 
 3167000    303.52381   -58.625232     366.6153    34022          406 
 3168000    268.60574   -59.929382    326.84042    34025          409 
 3169000    291.73587   -55.403727    342.88024    34010          394 
 3170000    294.04077   -45.753836    322.43883    33983          367 
 3171000     284.3334   -48.093637    351.37211    34031          415 
 3172000    296.32611   -48.756648    356.85434    34021          405 
 3173000     300.5866   -61.043312      371.923    34032          416 
 3174000    286.77152   -54.534739     371.8564    34051          435 
 3175000    293.42916   -57.275919    393.25656    34066          450 
 3176000    279.35043   -60.832103     348.5555    34035          419 
 3177000    296.49979   -53.691182    368.08468    34033          417 
 3178000    294.95539   -52.424563    363.01005    34029          413 
 3179000     276.8019   -51.502116    334.27578    34022          406 
 3180000    292.51648   -53.483721    384.57038    34058          442 
 3181000    290.75851   -59.297548    397.42043    34075          459 
 3182000    307.10949   -62.150157    377.52018    34028          412 
 3183000    288.06106    -45.75365    354.03941    34029          413 
 3184000    289.78726    -54.94391    340.15032    34010          394 
 3185000    282.81574   -43.949646    331.29283    34009          393 
 3186000    294.74707   -60.096041    371.79628    34040          424 
 3187000    299.93994   -54.620783    398.02726    34061          445 
 3188000    306.99944    -50.55613     371.9806    34023          407 
 3189000    279.36656   -47.400787    337.30475    34022          406 
 3190000    280.20594   -58.185318    333.87276    34016          400 
 3191000    316.71673   -46.990827    410.25048    34051          435 
 3192000    308.49767   -36.370821    371.10692    34020          404 
 3193000    318.21625   -56.099152    396.11493    34034          418 
 3194000    309.71865   -55.487157    394.69727    34043          427 
 3195000    293.02217   -44.280219    347.08651    34012          396 
 3196000    301.78865   -53.139405     385.7625    34045          429 
 3197000    306.49427   -59.078611    373.40655    34024          408 
 3198000    294.32733   -50.695063    401.83008    34074          458 
 3199000    275.05302   -50.093018     355.0214    34048          432 
 3200000    306.40097   -42.097739    395.91227    34050          434 
 3201000    317.23272   -50.381343    377.79464    34016          400 
 3202000    284.34185   -47.518681     361.3096    34043          427 
 3203000    303.92208   -53.745965    374.18615    34029          413 
 3204000    308.32774   -47.592479    380.39229    34030          414 
 3205000    277.15307   -48.920389     324.4936    34005          389 
 3206000    292.76212   -47.202159    353.86825    34022          406 
 3207000    280.79159   -47.924476     323.6002    34003          387 
 3208000    275.75339    -48.80655    318.64979    34004          388 
 3209000    314.64587   -45.671433      379.997    34021          405 
 3210000    300.12076   -48.465045    368.36587    34027          411 
 3211000    298.12673   -51.863204    367.12503    34029          413 
 3212000    288.57501    -51.09038    347.95902    34020          404 
 3213000     295.9989   -51.445577    372.97883    34039          423 
 3214000    301.66076   -45.843076    362.41352    34019          403 
 3215000    282.86067   -50.022052    346.02748    34026          410 
 3216000    288.95552   -58.289007    363.46908    34038          422 
 3217000    275.68882   -57.948046    372.59313    34069          453 
 3218000    300.31635   -60.514652    372.53765    34033          417 
 3219000    314.76809   -54.681388    401.28597    34044          428 
 3220000    272.14368   -53.401434    335.85734    34031          415 
 3221000    298.22638   -51.029315    361.83232    34023          407 
 3222000    303.05131   -47.085226    341.58446    33991          375 
 3223000    282.44811   -45.211122    355.58434    34036          420 
 3224000    291.49134   -52.713076    378.31012    34051          435 
 3225000    289.67885   -48.593956    366.06716    34040          424 
 3226000    283.60949   -46.248402    325.20343    33999          383 
 3227000     274.4501   -47.327498     308.1364    33993          377 
 3228000    290.77512   -49.663178    377.35551    34051          435 
 3229000    303.96388   -49.694737    376.01636    34031          415 
 3230000    300.01279   -49.306727    375.44353    34035          419 
 3231000    283.87397    -42.66502     327.3027    34003          387 
 3232000    297.85498   -56.770574    366.72911    34030          414 
 3233000    302.12936   -52.221121    347.52449    34002          386 
 3234000    288.49338     -50.3142    329.10022    33999          383 
 3235000    294.00364   -46.824432     344.7863    34010          394 
 3236000    278.08744   -51.548832    334.18665    34019          403 
 3237000    285.68037    -52.70183    369.21963    34050          434 
 3238000    293.16597    -54.60858    366.64945    34036          420 
 3239000    307.98108   -50.234831    413.64069    34067          451 
 3240000    280.68617   -57.234669    357.86137    34044          428 
 3241000    298.19442   -48.985819    377.78947    34042          426 
 3242000    281.16177   -50.772513    358.13352    34044          428 
 3243000    285.49297   -50.186251    350.32102    34028          412 
 3244000    308.13294   -53.055681    382.14845    34031          415 
 3245000    283.73513   -57.123124    360.46691    34043          427 
 3246000    280.03387   -58.730716    350.82524    34037          421 
 3247000    296.62644   -58.347504    357.97445    34021          405 
 3248000    300.47118   -54.422054    359.41985    34017          401 
 3249000     306.1809   -46.444875    364.24215    34016          400 
 3250000     274.0432   -45.467482    314.82543    34002          386 
 3251000    280.47414   -49.783362    347.39104    34032          416 
 3252000    277.59698   -48.516509    307.50275    33988          372 
 3253000    296.30987   -54.701808    392.74874    34061          445 
 3254000    298.55141   -51.598465    391.08274    34056          440 
 3255000    304.67336   -55.094856    379.53798    34034          418 
 3256000    309.70295   -55.009099    388.71918    34038          422 
 3257000     298.4525   -52.207472    370.99378    34033          417 
 3258000    295.53857   -49.753689    365.02358    34031          415 
 3259000    292.51477    -59.75753    366.86927    34037          421 
 3260000    297.89696   -57.867712    393.37336    34055          439 
 3261000    279.70225   -51.488018    351.19504    34036          420 
 3262000    285.28614   -51.819642    326.82474    34001          385 
 3263000    293.14892   -48.665067    349.98867    34016          400 
 3264000     301.7975   -53.425636    360.88686    34017          401 
 3265000    292.84161   -57.657624    382.04151    34054          438 
 3266000    295.99364   -57.281751    394.34567    34062          446 
 3267000    293.15093   -58.325748    379.60177    34051          435 
 3268000    305.82362   -61.753279    395.15822    34050          434 
 3269000    300.02665   -65.886724    385.46276    34047          431 
 3270000    299.21202   -57.163588    407.80186    34074          458 
 3271000    307.35726   -50.243784    373.32655    34024          408 
 3272000    324.25238   -58.077438    398.50654    34029          413 
 3273000    282.26272   -61.561602     331.1567    34007          391 
 3274000    291.19638   -59.130667    388.32758    34064          448 
 3275000    301.91569   -66.992306    407.77596    34070          454 
 3276000    305.55083   -67.172398    395.38683    34051          435 
 3277000       312.52   -58.573306    419.56763    34066          450 
 3278000    288.33771   -66.146763    382.19048    34061          445 
 3279000    301.63146   -59.904575    395.97856    34057          441 
 3280000    278.84705   -60.607772    339.58074    34025          409 
 3281000    284.91711   -57.274387    355.89612    34036          420 
 3282000    283.86672   -58.743052    383.20225    34068          452 
 3283000    319.76398   -52.818345    402.25922    34039          423 
 3284000    301.44495   -47.944869    372.07656    34029          413 
 3285000    301.95555   -49.016742    392.33209    34052          436 
 3286000    284.92299   -42.779949    341.67737    34019          403 
 3287000    289.95571   -43.281331    349.09785    34020          404 
 3288000    282.53244   -44.370145    343.84193    34025          409 
 3289000    297.14947   -53.970412    373.21074    34038          422 
 3290000      286.927   -45.738392    335.70163    34009          393 
 3291000    270.57756   -50.326299    319.65867    34012          396 
 3292000    306.30968   -48.488533    382.45532    34034          418 
 3293000    310.37189   -48.425765    355.08619    33999          383 
 3294000    281.99123   -49.163431    359.75741    34044          428 
 3295000    284.42546   -47.584372    345.94327    34023          407 
 3296000    283.82251    -46.71413    325.21002    34000          384 
 3297000    306.03639    -45.98237    341.68617    33989          373 
 3298000    296.49459   -42.728679    351.06368    34013          397 
 3299000    295.57405   -47.669944    332.51131    33994          378 
 3300000     273.7621   -44.694323    308.45776    33993          377 
 3301000    309.17072   -47.254132    376.17419    34025          409 
 3302000    312.89227   -52.846354    381.90044    34024          408 
 3303000    309.71445   -45.335573    388.25748    34036          420 
 3304000    289.41752   -52.157064    358.57231    34032          416 
 3305000      312.986   -51.582731    365.47464    34008          392 
 3306000    295.22728   -56.173518    350.40826    34015          399 
 3307000    290.30666   -58.245983    343.64783    34013          397 
 3308000     281.5151   -57.562408    344.16347    34027          411 
 3309000    300.90991   -51.965739    373.53765    34033          417 
 3310000    306.86159    -51.47071    383.35956    34036          420 
 3311000    269.30486   -49.058145    348.62951    34049          433 
 3312000    280.78148   -48.882163    333.60698    34011          395 
 3313000    302.33808   -58.866444    363.43698    34019          403 
 3314000     276.3935   -56.501102    339.04494    34024          408 
 3315000     304.3979   -50.865605    371.75135    34025          409 
 3316000    303.57681   -53.817912    399.47659    34058          442 
 3317000    290.31933   -50.178657    374.96556    34049          433 
 3318000    290.71277   -46.201644    350.86414    34021          405 
 3319000    303.82919   -55.584928    369.01024    34024          408 
 3320000    286.09761    -48.52284    347.58755    34024          408 
 3321000    298.32513   -52.741352      390.053    34055          439 
 3322000    285.00692   -51.522455    345.90075    34024          408 
 3323000    301.51874   -55.074895    372.70288    34031          415 
 3324000    300.18858   -51.659132    364.67879    34024          408 
 3325000     282.0098   -49.281466     327.9317    34006          390 
 3326000    302.50793   -48.703199    367.52398    34024          408 
 3327000    305.69848   -45.217669     377.4618    34030          414 
 3328000    297.74944    -49.90471    355.98366    34018          402 
 3329000    292.35235   -46.210691    341.75884    34009          393 
 3330000    271.49351    -48.77825    330.26642    34025          409 
 3331000    270.70278   -58.856485    351.46688    34052          436 
 3332000    304.12423   -55.878983    355.06382    34008          392 
 3333000    291.58614   -52.624001     367.2462    34039          423 
 3334000     293.1949   -52.655263    384.21818    34056          440 
 3335000      288.914   -49.197727    322.10707    33990          374 
 3336000    289.76703   -43.687246    339.04713    34009          393 
 3337000    286.32654   -44.262406    331.06391    34004          388 
 3338000    288.71918   -44.812644    369.66492    34046          430 
 3339000    303.04433   -46.925926    356.95732    34012          396 
 3340000     298.4639   -46.717949    369.81878    34032          416 
 3341000    314.12038   -53.689694    377.22736    34018          402 
 3342000    294.68562   -43.109566    373.25237    34041          425 
 3343000    285.02352   -43.426379    347.28701    34024          408 
 3344000    279.99116   -43.803092    340.09115    34022          406 
 3345000    302.37559   -48.164436    369.78146    34027          411 
 3346000    279.03361    -49.33812     345.5054    34031          415 
 3347000    277.29612   -56.101582    354.17909    34045          429 
 3348000    286.23956   -50.781942    357.65799    34035          419 
 3349000    280.23762   -55.763015    337.76711    34020          404 
 3350000    287.28405   -53.197617    350.84651    34026          410 
 3351000    304.98175   -53.571942    402.01581    34059          443 
 3352000    286.25109    -60.96174    364.27106    34043          427 
 3353000    269.92887   -60.266076    368.68354    34075          459 
 3354000    297.73672   -61.157373    409.61699    34076          460 
 3355000    275.43011   -54.121771    370.75248    34068          452 
 3356000    279.97937   -54.952407    370.16909    34060          444 
 3357000    297.09583   -46.614896    360.67318    34024          408 
 3358000    277.82421   -52.212427    310.65908    33992          376 
 3359000     304.0418   -54.439716    389.90923    34046          430 
 3360000    300.60536   -51.110797     390.6652    34052          436 
 3361000    288.41146   -52.054269     362.7416    34037          421 
 3362000    299.61925   -52.666779    373.67141    34034          418 
 3363000    284.26407   -43.011615    312.58374    33985          369 
 3364000    281.76698   -48.975947    342.05787    34024          408 
 3365000    307.85623   -49.928473    384.14991    34035          419 
 3366000     288.3857   -59.668299    365.74122    34042          426 
 3367000    278.24991   -52.022028    348.13723    34035          419 
 3368000    307.57413   -59.250732    399.04337    34050          434 
 3369000    277.94215   -53.615181    340.60543    34027          411 
 3370000    298.95451   -59.746565    382.23443    34043          427 
 3371000    274.60918    -50.75011     341.6896    34032          416 
 3372000    310.48022   -46.779737    370.51793    34017          401 
 3373000    295.59243   -45.143223    367.54945    34032          416 
 3374000    286.33005   -56.842541    364.62443    34043          427 
 3375000    300.69397   -46.103596    366.84192    34026          410 
 3376000    305.51389   -55.726372    384.08807    34037          421 
 3377000    286.95855   -53.488792     355.7099    34032          416 
 3378000    301.62967   -51.010875    361.45115    34019          403 
 3379000    292.85749   -53.130169     376.4721    34047          431 
 3380000    299.55266   -39.997461    365.23208    34025          409 
 3381000    282.26331   -40.541049    310.70387    33986          370 
 3382000    289.99231   -44.108545    330.02067    33997          381 
 3383000    282.41065   -51.574276    304.39983    33978          362 
 3384000    272.63316   -51.798268    326.13273    34017          401 
 3385000    284.96071   -54.090108    358.68038    34038          422 
 3386000    297.03446   -47.844476     381.6514    34048          432 
 3387000    295.97548   -57.679141    385.66441    34054          438 
 3388000    318.43331   -54.225209    417.94748    34057          441 
 3389000    295.12734   -49.076873    338.48108    34001          385 
 3390000    290.83458   -59.509655    360.06103    34032          416 
 3391000    292.34788    -63.82348    379.19584    34051          435 
 3392000    294.31087   -59.519275    383.48179    34053          437 
 3393000    270.13165   -55.949791    336.68324    34034          418 
 3394000    281.27838   -59.724438    328.39497    34008          392 
 3395000    318.86526   -59.276054    410.55842    34048          432 
 3396000    301.18356   -56.995283    365.87028    34024          408 
 3397000    308.99998   -56.846588    378.19183    34026          410 
 3398000    285.87731   -55.680339    326.59992    33999          383 
 3399000    280.65614   -51.471424    354.29274    34040          424 
 3400000    314.11347   -57.761905    392.31377    34035          419 
 3401000    279.28352   -55.659483    349.20833    34035          419 
 3402000    290.43682   -53.239883    357.20225    34029          413 
 3403000    301.51678   -55.526853    375.00243    34032          416 
 3404000    311.37658   -57.192674    410.42616    34056          440 
 3405000    283.90788   -58.488524    370.80603    34053          437 
 3406000    307.40538   -55.134171    398.27662    34050          434 
 3407000    306.18612   -48.160543    386.82564    34039          423 
 3408000    291.45339   -52.352173     344.2444    34013          397 
 3409000    302.29291   -55.312626    381.16677    34039          423 
 3410000    306.61896   -61.328526    378.62574    34031          415 
 3411000    295.98772    -60.42582    349.82247    34013          397 
 3412000    292.37452   -52.096191    367.91319    34039          423 
 3413000    278.28307   -54.139614     364.9405    34055          439 
 3414000    295.29589   -59.378917    384.70694    34054          438 
 3415000    315.41323   -57.081333    396.79864    34039          423 
 3416000    286.44754   -58.315778     360.4026    34037          421 
 3417000    283.73115   -58.207757    317.43702    33990          374 
 3418000    307.82903   -58.128252    381.95564    34032          416 
 3419000     281.3913   -58.814462     364.8024    34048          432 
 3420000    318.85734   -70.805859    391.13852    34028          412 
 3421000    279.81036    -68.57141    381.31651    34071          455 
 3422000    277.32597   -60.865417    345.28527    34033          417 
 3423000    296.71854   -60.913671    354.29101    34017          401 
 3424000    307.48016   -61.545965    413.51082    34067          451 
 3425000    315.21376   -59.494701     392.1001    34034          418 
 3426000    294.75339   -54.558432    376.89684    34044          428 
 3427000    309.39996   -53.847302    394.20215    34044          428 
 3428000    278.36452   -51.346173    334.43603    34019          403 
 3429000    287.45254   -47.807711    349.19037    34024          408 
 3430000    312.57371   -53.532632     378.5826    34023          407 
 3431000    270.27844   -51.335083    324.42865    34018          402 
 3432000    283.46352   -53.856207    338.26309    34017          401 
 3433000    294.40371   -44.665097    356.35823    34022          406 
 3434000    297.92655      -50.909    341.10421    34001          385 
 3435000    298.62167   -51.789506    376.95965    34040          424 
 3436000    286.16098   -52.967055    344.16782    34020          404 
 3437000    283.44675    -56.11014    377.19115    34062          446 
 3438000    290.31017   -54.722799    353.36198    34023          407 
 3439000    285.12775   -56.167958     323.5935    33996          380 
 3440000    282.89395   -56.493296    330.20128    34007          391 
 3441000     298.2288   -49.523717    346.86374    34007          391 
 3442000    300.41228   -67.835306    371.32753    34031          415 
 3443000    286.29162   -48.337595    334.23826    34008          392 
 3444000    299.71008   -49.621811    353.58641    34012          396 
 3445000    304.24759    -42.95963    355.79296    34009          393 
 3446000    297.28832   -43.350834    339.15487    33999          383 
 3447000    293.37406   -50.566764    382.71453    34053          437 
 3448000    302.63397   -47.916932    362.98125    34018          402 
 3449000    312.41329   -54.190497    377.39243    34022          406 
 3450000    299.70991   -49.044943     356.3687    34014          398 
 3451000    293.02713   -55.295434    354.14411    34022          406 
 3452000    290.62969    -54.13459    348.14295    34018          402 
 3453000     304.5213   -49.118713    364.13448    34015          399 
 3454000    285.82339    -47.33833    357.41733    34036          420 
 3455000    276.83611    -56.32353    342.97139    34032          416 
 3456000    270.18876   -53.173826    320.87135    34015          399 
 3457000     290.4901    -48.83465    342.78232    34009          393 
 3458000    289.43784   -50.616331    342.24718    34013          397 
 3459000    291.08335   -49.445396    343.65405    34011          395 
 3460000    302.70187   -41.925641    370.38871    34027          411 
 3461000     289.7092   -46.079966    318.25589    33985          369 
 3462000    283.12195   -48.592996    332.34401    34009          393 
 3463000    289.80151   -55.316418    354.33008    34025          409 
 3464000    312.18722   -56.157101    382.63387    34028          412 
 3465000    308.36708   -57.148869    384.65482    34034          418 
 3466000    283.95339   -54.368256    352.29128    34033          417 
 3467000    303.28202   -54.047512    365.44854    34021          405 
 3468000    291.47817   -55.444215    378.72474    34052          436 
 3469000    286.22735    -58.59513    347.76451    34023          407 
 3470000    311.05498   -46.437644    376.03683    34021          405 
 3471000    288.98616   -54.859233    356.92756    34031          415 
 3472000    295.58222   -61.569545    382.65473    34051          435 
 3473000    317.09445   -64.061289    418.71536    34059          443 
 3474000    300.86808   -62.733618    369.74679    34029          413 
 3475000    282.98994   -60.520408    379.45067    34066          450 
 3476000    268.80882   -62.763276    346.59951    34049          433 
 3477000    309.27373   -63.701951    390.21714    34039          423 
 3478000    314.14925   -62.466441    399.26472    34043          427 
 3479000    304.40424   -63.266386    383.39538    34039          423 
 3480000    288.57008   -62.631756    362.52635    34038          422 
 3481000    300.40406   -62.961227    382.06651    34043          427 
 3482000    296.43138   -68.399014    399.71568    34068          452 
 3483000    292.43402   -69.211048    407.46669    34084          468 
 3484000    278.27001   -72.586878    352.96763    34042          426 
 3485000     308.2767   -69.275092    400.95195    34051          435 
 3486000    290.96682   -59.267275    336.17442    34004          388 
 3487000     299.8156   -59.537535    367.58253    34028          412 
 3488000    282.37881   -57.011361    351.03063    34034          418 
 3489000    308.15836   -62.285841    390.32004    34041          425 
 3490000    272.41465   -57.354507    355.01143    34053          437 
 3491000    278.31596   -63.182651    388.57345    34084          468 
 3492000    289.34334   -64.010685    400.21717    34081          465 
 3493000    294.28116   -62.265436    405.64499    34078          462 
 3494000    277.66666    -56.28676    356.63997    34047          431 
 3495000    289.14993   -60.037373    356.84986    34030          414 
 3496000    298.72462   -59.352259    348.38624    34007          391 
 3497000    289.84303   -51.804409    342.17572    34012          396 
 3498000    289.95125   -53.871892    321.26941    33987          371 
 3499000    292.62234   -53.457696    356.85335    34026          410 
 3500000    295.21957   -60.753457    374.10989    34042          426 
 3501000    298.91565   -52.143047    376.68808    34039          423 
 3502000    296.15555   -63.564003    393.45054    34061          445 
 3503000    304.42984   -62.730046    379.72691    34035          419 
 3504000    289.55778   -54.203419    370.32423    34045          429 
 3505000    288.17187   -59.011494    365.36433    34042          426 
 3506000    306.66359   -54.990173    378.88644    34031          415 
 3507000    283.30919   -63.341954    357.85148    34039          423 
 3508000    294.46433   -66.461082    363.66161    34030          414 
 3509000    282.94254   -68.829279    371.97645    34056          440 
 3510000     278.8577   -62.396136    336.41573    34021          405 
 3511000    299.93864   -60.335397    381.31946    34043          427 
 3512000     295.5202   -52.713223    379.85989    34047          431 
 3513000    288.17713   -53.335562    390.23449    34071          455 
 3514000     296.6465   -54.950292    387.47309    34055          439 
 3515000    291.03833   -58.046615    359.02434    34028          412 
 3516000    291.90185   -59.742099     351.3793    34020          404 
 3517000    325.07717   -58.916066    407.12033    34036          420 
 3518000    296.33509   -56.347789    343.85423    34006          390 
 3519000    285.97264   -48.874049    337.78701    34013          397 
 3520000    288.36784   -47.965432    355.62281    34029          413 
 3521000    291.73606   -51.518472    363.62768    34034          418 
 3522000    278.91389    -57.30964    340.96184    34027          411 
 3523000    282.69252   -63.054462    350.19042    34031          415 
 3524000    279.19736   -46.761865     336.5267    34021          405 
 3525000    275.98218    -48.49341    328.61968    34014          398 
 3526000    302.15603   -58.174421    370.54084    34028          412 
 3527000    294.41852   -49.184607    338.74892    34002          386 
 3528000    274.23958   -59.037572    345.20983    34039          423 
 3529000    271.86465   -58.299673    325.53261    34018          402 
 3530000    300.79694   -52.965727    373.25847    34031          415 
 3531000    289.37993   -53.240421    356.57274    34029          413 
 3532000    290.41529   -47.244105    334.39727    34003          387 
 3533000    299.13771   -51.462442    390.73778    34052          436 
 3534000    309.33743   -54.354878    368.11511    34016          400 
 3535000    321.50247   -48.755976    378.07531    34011          395 
 3536000    307.19893   -50.006384    348.08088    33997          381 
 3537000    261.89565   -47.694172    319.75555    34026          410 
 3538000    303.29283    -55.39461    377.93799    34034          418 
 3539000    304.27081   -53.452711    385.23484    34041          425 
 3540000    284.32358   -52.517405    327.82255    34003          387 
 3541000    292.31151    -51.78619    340.43122    34007          391 
 3542000     277.5848    -56.92882    355.17645    34046          430 
 3543000    304.46891   -57.675769    371.57343    34026          410 
 3544000    292.71143   -57.840492    363.99045    34033          417 
 3545000    290.68046   -58.006514    373.11358    34047          431 
 3546000    305.88769    -55.93289    397.98892    34053          437 
 3547000    307.31833   -57.924151    402.96355    34056          440 
 3548000     287.6473   -68.990139    377.63538    34057          441 
 3549000    297.74062   -67.331764    391.65558    34058          442 
 3550000    300.04896   -55.842539    397.50171    34060          444 
 3551000    291.67823   -61.918329    374.28528    34046          430 
 3552000    294.41201   -53.779043    381.60084    34051          435 
 3553000    281.70623   -52.898283    331.76839    34011          395 
 3554000    295.66154   -65.170277    378.99104    34047          431 
 3555000    295.19042   -60.630289    368.26143    34034          418 
 3556000    282.20402   -58.099312    350.99864    34034          418 
 3557000    304.85016   -60.222029    401.81502    34057          441 
 3558000    294.60383   -57.138554    396.01607    34067          451 
 3559000    265.04388   -57.949628    359.31099    34070          454 
 3560000    301.31777   -60.843506    403.53063    34064          448 
 3561000    281.96454   -63.655778     351.0087    34034          418 
 3562000    314.36968   -46.702912    398.85114    34042          426 
 3563000    294.70565    -59.40455    377.93534    34043          427 
 3564000    285.94474   -57.350221    343.12359    34019          403 
 3565000    295.95351   -56.894971    404.12264    34073          457 
 3566000    280.96693   -65.057106    363.06635    34050          434 
 3567000    276.18486   -62.096131    335.47914    34024          408 
 3568000    308.98382   -61.548438    397.90918    34049          433 
 3569000     297.5624   -55.744682    376.30218    34041          425 
 3570000    294.94912   -57.290595     361.4814    34028          412 
 3571000    307.63512    -59.66379    398.11563    34050          434 
 3572000    292.11068   -63.095958    391.44442    34066          450 
 3573000    309.15954   -72.538087    421.33083    34074          458 
 3574000    289.47311   -57.499051    392.26384    34069          453 
 3575000    306.96724   -61.896662    385.35015    34038          422 
 3576000    280.49631   -64.838072    359.92652    34045          429 
 3577000    299.05475   -58.576227    370.48048    34032          416 
 3578000    301.74233   -68.040671    348.25083    34002          386 
 3579000    268.06664   -64.137128    345.83633    34049          433 
 3580000    285.21931   -58.241222    367.58134    34049          433 
 3581000    282.20815   -62.638647    360.38092    34045          429 
 3582000    278.66784   -67.746041    357.28337    34047          431 
 3583000    295.41816   -65.942719    378.32292    34046          430 
 3584000     290.1036   -66.581035    357.35558    34030          414 
 3585000    311.63117   -61.135619    392.34062    34039          423 
 3586000    283.62609   -58.545266    357.06682    34038          422 
 3587000     290.9577   -55.892586     331.8434    33999          383 
 3588000    295.71633   -60.495981     392.4671    34061          445 
 3589000    268.44049   -59.667489    318.77159    34015          399 
 3590000    284.68552   -59.309077    365.02177    34047          431 
 3591000    286.54182   -53.502143    339.04353    34013          397 
 3592000    298.43225   -56.412877    408.85659    34075          459 
 3593000    282.34227    -59.93593    389.98646    34080          464 
 3594000      272.723   -59.137692    385.39534    34090          474 
 3595000    289.18961   -51.358768    380.04399    34056          440 
 3596000    296.04003   -46.591573    395.70959    34064          448 
 3597000    301.70571   -58.594465    370.07177    34028          412 
 3598000    279.26531   -57.668398    337.31479    34022          406 
 3599000    283.62733   -50.175141    367.70124    34051          435 
 3600000    308.29825   -55.493483    383.05464    34031          415 
 3601000    285.64469   -47.178435    344.08977    34019          403 
 3602000    304.24211   -57.887528    370.36925    34025          409 
 3603000    300.17157   -51.122346    362.33456    34021          405 
 3604000    294.89035   -55.346905    344.97638    34008          392 
 3605000    299.62598   -64.812142    382.03585    34044          428 
 3606000    275.20668   -60.326022     347.1655    34040          424 
 3607000    286.53296   -64.814962    377.87326    34059          443 
 3608000     306.0771   -61.468575    406.65914    34062          446 
 3609000    307.12307   -59.064409    410.33145    34065          449 
 3610000    288.93812   -54.111062    344.79304    34015          399 
 3611000    301.65438   -51.419577    372.33674    34031          415 
 3612000    282.15985   -54.103452    360.20708    34045          429 
 3613000     286.4718   -54.642241    357.36465    34035          419 
 3614000    284.13893   -55.376171    342.39416    34019          403 
 3615000    297.80229   -57.761758    363.39628    34026          410 
 3616000    278.13066    -64.23502    364.16614    34055          439 
 3617000    287.46575   -55.278981    360.15275    34037          421 
 3618000    296.88132   -61.599261    384.57087    34051          435 
 3619000    292.11344   -52.275465    366.83888    34038          422 
 3620000    293.45756   -53.459747    370.99244    34041          425 
 3621000    302.48922   -48.931413    360.86454    34017          401 
 3622000    308.93405   -51.427803    397.52405    34047          431 
 3623000    285.00851   -56.848689    357.24067    34036          420 
 3624000    308.50631   -47.766819    363.48546    34012          396 
 3625000    289.99743   -39.384388    370.20392    34044          428 
 3626000    290.43483   -45.475203    326.28232    33992          376 
 3627000    296.65272   -51.179137    351.09048    34013          397 
 3628000     283.0849    -56.86878    359.63709    34043          427 
 3629000     292.9484   -65.378801    400.28606    34075          459 
 3630000    290.46295   -57.878793    377.77948    34053          437 
 3631000    296.00015   -59.680398     383.0993    34051          435 
 3632000    296.38205   -52.628292    366.80614    34032          416 
 3633000    314.69502    -54.89406      364.506    34005          389 
 3634000    309.58817   -50.994032    358.46283    34005          389 
 3635000    275.18714   -56.664665    333.95401    34024          408 
 3636000    274.44431   -54.272053    345.48185    34039          423 
 3637000    285.22687   -57.397399    360.44235    34039          423 
 3638000    296.08186   -55.301961    394.00241    34062          446 
 3639000    315.27269   -59.523181    398.96785    34041          425 
 3640000    285.31091   -58.780543    377.99226    34061          445 
 3641000    274.11783    -47.85629    309.90793    33995          379 
 3642000     281.6136   -40.711907     331.0265    34010          394 
 3643000    285.74204   -49.062432    328.81564    34002          386 
 3644000    282.66694   -45.558528    331.24704    34009          393 
 3645000    281.72507   -53.113754    320.57232    33998          382 
 3646000     289.2261     -52.8871    370.11496    34046          430 
 3647000    287.28125   -51.503392    340.94535    34014          398 
 3648000    284.77805   -51.789818    341.77418    34019          403 
 3649000    299.50945   -51.454571    369.80968    34030          414 
 3650000    287.49348   -54.016402    340.20217    34012          396 
 3651000    300.50318   -51.241156    362.71743    34017          401 
 3652000    290.59509   -50.303671    379.75165    34054          438 
 3653000    304.96626   -54.428671    363.72204    34017          401 
 3654000    288.53462   -52.803991    370.28285    34047          431 
 3655000    319.05628   -50.970791    377.03326    34013          397 
 3656000    294.00476   -54.038051    359.42481    34027          411 
 3657000    297.96246   -48.967325    369.91662    34033          417 
 3658000     289.1987   -51.293378    341.81486    34013          397 
 3659000    308.93502   -39.040529    371.51637    34019          403 
 3660000    287.83476   -42.003898    350.20388    34024          408 
 3661000    311.66806   -55.117935    367.50605    34012          396 
 3662000    287.87349   -47.652918     345.9908    34020          404 
 3663000    289.84225   -53.453299    343.13553    34014          398 
 3664000     296.9389   -52.084214      365.007    34028          412 
 3665000    271.63075   -57.458368    355.64487    34053          437 
 3666000    296.29252    -47.98084    350.41886    34011          395 
 3667000    294.76764   -51.617503    356.95207    34022          406 
 3668000     297.8344   -55.033317    379.07612    34043          427 
 3669000    295.10286   -54.187705    337.05241    34000          384 
 3670000    287.78836   -51.923998    315.76014    33985          369 
 3671000    279.08529    -50.74128    336.33731    34021          405 
 3672000    302.77095   -49.551931    359.86514    34015          399 
 3673000    308.27175   -45.973573    358.49701    34007          391 
 3674000    296.89221   -49.384007    347.25966    34008          392 
 3675000    281.92484   -59.411864    354.81522    34039          423 
 3676000     278.9037   -55.792621    351.00211    34038          422 
 3677000    300.29704   -43.872527    399.49065    34063          447 
 3678000    280.29912   -56.075042    357.80539    34045          429 
 3679000    286.81356   -52.505001    342.30957    34017          401 
 3680000    309.28465   -45.243592    401.19628    34052          436 
 3681000    273.53622   -49.824668    351.89993    34048          432 
 3682000    298.23089   -49.907946     382.6441    34047          431 
 3683000    293.99113   -51.922596    358.96052    34025          409 
 3684000     284.0039   -67.526927    366.19194    34049          433 
 3685000    296.55064     -57.5787     376.6439    34043          427 
 3686000    297.25646   -66.394244    379.07138    34043          427 
 3687000    301.15282    -64.33824    378.08612    34036          420 
 3688000    306.35631    -57.54172    386.93248    34039          423 
 3689000    291.82885   -60.031766    347.60212    34016          400 
 3690000    313.28542    -61.74276    390.49759    34033          417 
 3691000    296.91969    -62.45158    365.67977    34029          413 
 3692000    285.54224    -58.69242    338.43408    34014          398 
 3693000    285.95274   -62.701683    344.57126    34020          404 
 3694000    317.34178   -61.873871    394.58303    34033          417 
 3695000    282.24162    -61.89226    348.74178    34031          415 
 3696000     289.9365   -66.939665    380.50311    34057          441 
 3697000    299.35528   -68.327622    393.22895    34057          441 
 3698000    264.80493   -64.241147    338.24574    34043          427 
 3699000    270.80583   -61.045512    329.20727    34024          408 
 3700000    300.80504   -61.812031    379.79076    34040          424 
 3701000    272.26264   -57.394336    356.59327    34055          439 
 3702000     296.4266    -55.68784    367.12691    34032          416 
 3703000     296.2838   -56.177844    353.42328    34017          401 
 3704000    295.70432   -57.937422    353.13834    34016          400 
 3705000    307.66518   -59.056916    375.72305    34024          408 
 3706000    283.66289    -54.71258    348.65301    34029          413 
 3707000    308.92503   -57.090938     362.9113    34011          395 
 3708000    301.35212    -48.87233      383.098    34043          427 
 3709000    302.54382   -50.154867    398.97196    34059          443 
 3710000    279.45868   -55.319194    347.32536    34033          417 
 3711000    317.81888   -53.496834    404.21123    34042          426 
 3712000    298.41908   -56.383849    381.07326    34044          428 
 3713000    305.41061   -51.279046    361.39628    34013          397 
 3714000    290.18386    -52.30453    351.33874    34022          406 
 3715000    303.02728   -48.947171     378.2154    34035          419 
 3716000    291.12605   -43.120947    332.72463    34000          384 
 3717000    293.11711   -47.983061    342.48009    34008          392 
 3718000    296.71995   -46.351631    355.56383    34019          403 
 3719000    299.91613   -47.570885    360.16211    34018          402 
 3720000    295.64052   -56.651312    359.43602    34024          408 
 3721000    304.02694    -53.37151    383.13034    34039          423 
 3722000    315.12434   -41.741871    380.85011    34022          406 
 3723000      280.893   -51.593301    322.64761    34002          386 
 3724000    291.08603   -53.871014    375.84958    34050          434 
 3725000    292.59907   -52.253608     374.1776    34044          428 
 3726000    295.72653   -54.700438    378.54642    34046          430 
 3727000    302.29565   -58.994763     409.2054    34069          453 
 3728000    293.10236   -48.393871    375.22603    34046          430 
 3729000     306.6885   -47.135866    378.52675    34031          415 
 3730000    286.53447   -58.652681    374.50391    34055          439 
 3731000    291.35632   -42.712697    365.37252    34037          421 
 3732000    293.22921   -54.922988     368.3787    34038          422 
 3733000    305.53842   -51.853479    380.45537    34034          418 
 3734000    305.59278    -49.84135    353.46634    34005          389 
 3735000    289.23143    -55.09172    353.31564    34026          410 
 3736000    296.86223   -52.284443    388.73611    34056          440 
 3737000    278.40659   -62.491682    358.16692    34048          432 
 3738000    304.42871   -57.701324     400.0623    34057          441 
 3739000    299.62632   -50.061908    378.97362    34041          425 
 3740000    289.97459   -48.518547    345.13184    34016          400 
 3741000    303.91347   -58.583742    392.01721    34049          433 
 3742000    302.12836   -44.451549    340.53096    33995          379 
 3743000     304.5273   -49.455254    359.36786    34012          396 
 3744000    284.88018    -40.21461    344.10855    34021          405 
 3745000    302.52152   -51.235575    387.95893    34047          431 
 3746000    300.57742   -46.064647    358.17724    34013          397 
 3747000    290.18322   -44.544106    331.57074    34000          384 
 3748000    295.54288   -43.750044     325.2271    33985          369 
 3749000    304.49585   -55.215372    374.83937    34028          412 
 3750000    307.95388   -50.265598    399.84216    34052          436 
 3751000    283.13316    -52.07696    365.62169    34049          433 
 3752000    299.96456   -58.235948    372.39099    34033          417 
 3753000    314.94918   -58.807117    405.83704    34048          432 
 3754000     285.1311    -61.81366    339.61319    34015          399 
 3755000    316.26709   -55.502414    384.77301    34024          408 
 3756000    286.23153   -61.365822    347.31606    34023          407 
 3757000     276.1962   -47.669001    344.14881    34035          419 
 3758000    302.03758   -64.216712    382.08202    34041          425 
 3759000      286.161   -60.311487    374.67198    34055          439 
 3760000    293.05312   -56.694363    374.27863    34045          429 
 3761000    283.33905   -59.954734    374.92787    34060          444 
 3762000    312.08242   -66.902963    405.37745    34052          436 
 3763000     284.7737   -66.170945    368.27163    34049          433 
 3764000    298.02924   -67.198469    416.39183    34085          469 
 3765000    303.46966   -64.729569    384.97054    34041          425 
 3766000    295.95627   -65.157669    379.98147    34047          431 
 3767000    294.32656   -54.259112    353.28982    34019          403 
 3768000    291.03203   -58.480576    344.57779    34011          395 
 3769000    289.22834   -51.075841    360.58444    34034          418 
 3770000    287.49135   -50.747412     383.1225    34062          446 
 3771000    291.15195   -59.839231    365.13224    34036          420 
 3772000    282.55633   -52.029301    352.14116    34035          419 
 3773000    283.13171   -45.621487    322.80481    33999          383 
 3774000    288.17705   -57.773753    327.62409    33997          381 
 3775000    286.10881   -58.205155    349.38493    34025          409 
 3776000    277.09397   -52.862063     340.7771    34029          413 
 3777000    296.48086   -54.029709    354.64874    34018          402 
 3778000    276.50423   -58.268411    347.62932    34037          421 
 3779000    283.27644   -58.792741    339.05521    34018          402 
 3780000     290.6151   -58.403654    354.21691    34025          409 
 3781000    283.27019   -65.188867    367.47816    34052          436 
 3782000    309.23811   -61.231821    387.34607    34036          420 
 3783000    307.34868   -55.124641    398.38671    34050          434 
 3784000    279.70791   -53.964079    361.54623    34049          433 
 3785000    278.00486    -51.94528    336.14697    34022          406 
 3786000    297.33655   -57.121148    382.86614    34045          429 
 3787000    296.86837   -54.556609    381.80884    34048          432 
 3788000    295.00061   -47.935982    370.22576    34038          422 
 3789000    290.34016   -52.029744    364.33776    34037          421 
 3790000    275.99482    -54.57666    353.37749    34045          429 
 3791000    295.99615   -54.568041    363.70391    34028          412 
 3792000    290.65428   -60.376684    386.69336    34063          447 
 3793000    279.05022   -59.256454    364.13741    34053          437 
 3794000    274.63443    -51.65051    329.81746    34019          403 
 3795000    295.84788   -52.361383    365.96211    34031          415 
 3796000    307.08614   -52.555594    387.44041    34040          424 
 3797000    293.74365   -52.099155    352.50971    34019          403 
 3798000    296.67102   -50.178921    350.24766    34012          396 
 3799000    301.85699   -53.010304    395.90216    34055          439 
 3800000    283.07036   -58.625302    388.48193    34075          459 
 3801000    293.70275   -57.072296    361.12303    34028          412 
 3802000    286.88677   -48.030844    346.77631    34022          406 
 3803000    307.47583   -50.471175    422.69537    34077          461 
 3804000     285.3742   -49.344561    387.51861    34072          456 
 3805000    306.10271   -58.011398    394.52574    34049          433 
 3806000    302.63434   -62.055994    368.78041    34024          408 
 3807000    316.30271   -54.609188     384.2006    34023          407 
 3808000     291.6934   -62.986301    385.42743    34059          443 
 3809000    295.07344   -62.004261    379.74029    34047          431 
 3810000    281.94425   -46.498823    345.52384    34028          412 
 3811000    303.04339   -62.595876    375.14747    34032          416 
 3812000    288.46842    -62.59421    362.99267    34038          422 
 3813000    308.22705   -66.701974    403.86567    34055          439 
 3814000    285.92076   -56.324652    349.84919    34025          409 
 3815000    305.43956   -56.384357    396.87718    34050          434 
 3816000    291.33976   -48.514623    400.33268    34076          460 
 3817000    265.31507   -52.460721    312.42589    34011          395 
 3818000    279.83739    -52.15286    331.36394    34014          398 
 3819000    304.01258   -57.486964    384.05677    34039          423 
 3820000      317.974   -64.363302    430.38333    34071          455 
 3821000    275.72635   -69.537074    370.71565    34068          452 
 3822000    307.87737   -49.766115    391.88409    34042          426 
 3823000    297.71204   -55.923713    386.84204    34051          435 
 3824000    310.94094   -53.235418    350.40369    33995          379 
 3825000    306.79798   -54.036084     370.6619    34022          406 
 3826000     299.8149   -51.020473    381.29485    34043          427 
 3827000    289.88766   -50.622396    353.10642    34022          406 
 3828000    285.60499    -56.22735    355.91514    34035          419 
 3829000    304.14186   -55.802566    372.09782    34027          411 
 3830000    288.78352   -48.798118    363.56354    34039          423 
 3831000    298.32214   -52.595081    348.87313    34009          393 
 3832000     288.5458   -52.899955    361.70599    34035          419 
 3833000    305.13577   -49.134194    368.57541    34021          405 
 3834000    284.75441    -49.21871    380.80645    34064          448 
 3835000    298.03985   -42.115123    368.95854    34031          415 
 3836000    285.12803   -42.975085    337.04641    34013          397 
 3837000    279.04894   -43.870976    342.20504    34028          412 
 3838000    270.01833   -37.467164    316.50962    34009          393 
 3839000    297.06757   -41.080918    371.87603    34036          420 
 3840000    300.75848   -32.488068    361.91659    34020          404 
 3841000     300.3016   -41.818748    347.46335    34004          388 
 3842000    278.07811   -45.144768    334.52859    34019          403 
 3843000    302.13271   -40.401108    372.52145    34029          413 
 3844000    298.33873   -43.867126    340.45755    33999          383 
 3845000     299.5678   -46.337602     353.6187    34012          396 
 3846000    267.58941   -41.402723    309.98766    34005          389 
 3847000    301.03509   -41.754871    337.92309    33992          376 
 3848000    286.89044   -48.353633    331.52836    34004          388 
 3849000    305.87495   -44.261772    371.09814    34023          407 
 3850000    283.74956    -49.09139    362.90847    34044          428 
 3851000    292.59624   -43.784975    351.77914    34018          402 
 3852000    279.36366   -47.512652    316.28864    33996          380 
 3853000    297.01098   -54.934021     333.4607    33992          376 
 3854000    298.12894   -47.896991    362.13066    34024          408 
 3855000    300.21669   -45.665677    380.42928    34042          426 
 3856000    283.93743    -38.02587    320.74285    33995          379 
 3857000    298.36728   -36.074853    327.74462    33985          369 
 3858000    328.45352   -45.852635    382.07718    34007          391 
 3859000    288.97596   -46.576288    365.00016    34040          424 
 3860000    289.48769   -45.054178    370.85966    34046          430 
 3861000    292.03233   -46.500842    349.19317    34018          402 
 3862000    308.86594   -53.322923    387.28576    34037          421 
 3863000    288.29452    -48.66426    359.36983    34035          419 
 3864000    304.43508   -46.711004    381.77549    34037          421 
 3865000    288.65532    -45.32362    347.56973    34020          404 
 3866000    299.36782   -42.852417     376.2763    34037          421 
 3867000    285.81495   -44.436764    335.67311    34011          395 
 3868000    276.64677   -46.171387    319.77114    34004          388 
 3869000    296.08708   -47.719587    345.32803    34008          392 
 3870000    278.74877   -57.731743    354.33594    34042          426 
 3871000    287.38105   -55.190802    374.93289    34054          438 
 3872000    317.59978   -49.449708    411.52836    34051          435 
 3873000     298.1006   -51.166993    363.18417    34024          408 
 3874000    305.14963   -48.163452    357.61886    34010          394 
 3875000    300.08229   -51.335167    372.16118    34033          417 
 3876000    297.21621   -39.793934    344.73428    34006          390 
 3877000    287.58484   -46.132481    347.02544    34021          405 
 3878000    273.66146   -40.881232    329.11046    34020          404 
 3879000    292.71621   -49.328321    384.51639    34057          441 
 3880000    290.96991   -49.202653    363.49724    34035          419 
 3881000    306.46389   -53.960202    365.19302    34016          400 
 3882000    277.49815   -57.596189    337.93464    34025          409 
 3883000    280.62296   -52.733935    348.20223    34033          417 
 3884000    290.75763   -51.344543    344.38129    34014          398 
 3885000     292.4904   -53.886184    350.21994    34018          402 
 3886000    294.87779   -46.533575    360.64068    34027          411 
 3887000    307.76359   -55.260858    407.19425    34060          444 
 3888000    302.15705   -56.052804    354.62523    34010          394 
 3889000    299.91619   -52.497664    367.01936    34026          410 
 3890000    277.52006   -51.294991    371.61249    34065          449 
 3891000    288.30204   -52.417039    369.74134    34044          428 
 3892000    286.57199   -54.739196    347.72277    34021          405 
 3893000    283.01764   -49.960358    344.42013    34025          409 
 3894000    284.54201   -48.272734    346.03612    34024          408 
 3895000     296.6035   -44.696345    340.34889    34001          385 
 3896000    297.70184   -57.801664     360.6808    34023          407 
 3897000    284.43008   -55.563513    344.13007    34022          406 
 3898000    312.89943   -55.367342    397.84117    34043          427 
 3899000    300.61316    -51.21661     356.6585    34014          398 
 3900000    310.29089   -53.417762     367.4026    34013          397 
 3901000    295.79426   -45.632892    348.40777    34012          396 
 3902000    309.58978   -49.651832    372.82481    34019          403 
 3903000    283.72361   -45.085197    336.98004    34015          399 
 3904000    278.98244   -57.169234    343.07437    34029          413 
 3905000    287.58029   -60.010015    356.64989    34032          416 
 3906000    280.78184   -52.722366     350.5819    34035          419 
 3907000    288.82097   -56.879043    380.50533    34058          442 
 3908000    288.33863   -55.083271    378.19202    34055          439 
 3909000     297.0938   -53.362683    374.28108    34038          422 
 3910000    321.18858   -49.517947    395.11974    34029          413 
 3911000    258.12139   -55.359877    298.60087    34003          387 
 3912000    287.96432   -61.139449    374.11218    34052          436 
 3913000    304.79337   -52.506671    404.12129    34061          445 
 3914000    287.23323   -49.783959    349.19841    34024          408 
 3915000    296.90531   -52.077105    371.08195    34036          420 
 3916000    271.98792   -48.100351    328.00287    34021          405 
 3917000    285.35958   -48.724452    323.28397    33996          380 
 3918000    304.84499   -50.347072    364.77872    34018          402 
 3919000    296.09547   -45.288106    357.46097    34021          405 
 3920000    305.64286   -42.730884    360.93775    34013          397 
 3921000    304.86857   -47.555329    342.82311    33994          378 
 3922000    307.43277   -43.012381    354.69641    34004          388 
 3923000      274.202   -53.151836    351.85267    34047          431 
 3924000    288.08163   -44.392269    349.63515    34023          407 
 3925000    284.91213   -39.664351    327.27625    34002          386 
 3926000    307.33568   -43.859231    356.72789    34005          389 
 3927000    300.55814   -51.221671     355.0482    34013          397 
 3928000    275.94312   -41.573047    313.53637    33998          382 
 3929000    293.74458   -42.528576    344.50216    34010          394 
 3930000    306.08381   -44.831941    401.14585    34055          439 
 3931000    303.36061    -45.77821    357.64198    34011          395 
 3932000    293.80438   -41.357644    361.81509    34028          412 
 3933000    289.60099   -41.868205    361.67546    34035          419 
 3934000    290.32725    -50.31013    346.09041    34016          400 
 3935000    298.12118    -44.96899    347.08178    34005          389 
 3936000    287.25148   -51.028799    346.77977    34022          406 
 3937000    282.55612    -41.10685    355.01516    34035          419 
 3938000    299.16561   -47.496846    388.13882    34051          435 
 3939000    293.60303   -43.270296    316.45319    33978          362 
 3940000    297.37047   -42.064801    336.25458    33996          380 
 3941000    268.74567   -42.384695    325.33527    34022          406 
 3942000    301.86882   -43.259572    367.26601    34025          409 
 3943000    281.53316   -47.244696    342.08101    34023          407 
 3944000    296.69464   -39.175194     348.7048    34010          394 
 3945000    281.59426   -44.482194    306.00422    33981          365 
 3946000    300.45092   -43.330698    350.60576    34007          391 
 3947000    295.47891   -46.145694    321.25083    33981          365 
 3948000    287.77332   -41.775496    305.14312    33972          356 
 3949000    297.47176    -50.75409    344.18727    34004          388 
 3950000    291.12867   -51.251691      369.434    34042          426 
 3951000    275.27136    -54.90728    370.12839    34067          451 
 3952000    291.15501   -59.431642    358.50391    34030          414 
 3953000    299.72061   -59.037469    364.74454    34025          409 
 3954000    286.86812   -49.830063    337.92699    34009          393 
 3955000    297.98468    -52.46504    367.35591    34030          414 
 3956000    274.89096   -58.856186    320.66796    34008          392 
 3957000     308.6932   -54.245894    370.85334    34020          404 
 3958000    302.04223   -54.108157    356.77073    34013          397 
 3959000    292.33793   -63.299711    350.58521    34019          403 
 3960000    296.41604   -51.952914    338.16375    33999          383 
 3961000    281.85324   -50.839502    328.96225    34007          391 
 3962000    271.87432   -58.637954    329.14113    34023          407 
 3963000    286.94252   -56.741645    355.08254    34032          416 
 3964000    313.95756   -58.008636    371.35884    34013          397 
 3965000    294.73213   -51.986127    355.81451    34021          405 
 3966000     273.1986   -53.302958    341.43547    34035          419 
 3967000    301.57806   -66.087554    364.95774    34021          405 
 3968000    298.33768   -56.385561    385.06991    34048          432 
 3969000    277.86912   -48.863505    363.99387    34056          440 
 3970000    307.28142   -62.055851    381.21202    34032          416 
 3971000    292.02608   -52.083696    376.98881    34050          434 
 3972000    288.97242   -57.306702    366.73727    34040          424 
 3973000     289.3541   -52.797288    359.44573    34031          415 
 3974000     286.8726   -60.485924    381.49486    34061          445 
 3975000      290.385   -51.978119    372.62431    34046          430 
 3976000    299.11798   -55.162968    372.68694    34034          418 
 3977000    302.02197   -46.366079    384.66803    34044          428 
 3978000    294.14447   -45.364279    341.97167    34005          389 
 3979000     309.6522   -48.526411    368.28773    34014          398 
 3980000    286.28458   -49.448813    331.66818    34005          389 
 3981000    300.58973   -46.901103     345.2691    34002          386 
 3982000    281.10063   -47.924383    330.08614    34008          392 
 3983000    279.01334   -42.262976    350.06921    34036          420 
 3984000    307.13724   -50.741055    377.44587    34026          410 
 3985000    297.57012   -51.114855    359.35712    34022          406 
 3986000    297.38456   -51.465092    368.92671    34033          417 
 3987000    269.90978   -55.017153    333.94657    34031          415 
 3988000    304.05598   -49.980111    369.94329    34025          409 
 3989000    279.73054   -53.729561    348.86778    34034          418 
 3990000    292.66234   -62.973054    385.17163    34058          442 
 3991000    298.26168   -56.573197     405.4592    34073          457 
 3992000    289.34084   -63.185506    362.01679    34035          419 
 3993000    303.20906   -54.359298    377.25655    34033          417 
 3994000    290.40235   -54.378749    366.95962    34040          424 
 3995000    305.83017   -51.186951    364.20606    34016          400 
 3996000    279.83106   -57.833813    329.45047    34011          395 
 3997000    298.37021   -46.345047    385.54424    34049          433 
 3998000    291.13495   -54.729386    340.83051    34006          390 
 3999000    285.25347   -57.898054    364.11448    34044          428 
 4000000    281.13675   -53.972087    373.35929    34062          446 
Loop time of 28544 on 5 procs for 3000000 steps with 34062 atoms

Performance: 9.081 ns/day, 2.643 hours/ns, 105.101 timesteps/s
99.5% CPU use with 5 MPI tasks x no OpenMP threads

MPI task timing breakdown:
Section |  min time  |  avg time  |  max time  |%varavg| %total
---------------------------------------------------------------
Pair    | 690.24     | 896.95     | 967.56     | 348.6 |  3.14
Neigh   | 10893      | 15970      | 17715      |2021.4 | 55.95
Comm    | 2065.8     | 3662.2     | 9068.4     |4507.7 | 12.83
Output  | 0.58776    | 2.9246     | 3.5218     |  68.3 |  0.01
Modify  | 7359.6     | 7626.7     | 8060.8     | 324.0 | 26.72
Other   |            | 385.6      |            |       |  1.35

Nlocal:    6812.4 ave 6965 max 6719 min
Histogram: 1 1 1 0 1 0 0 0 0 1
Nghost:    17286 ave 17626 max 17072 min
Histogram: 1 1 1 0 1 0 0 0 0 1
Neighs:    12617.4 ave 13767 max 11976 min
Histogram: 2 0 0 1 1 0 0 0 0 1

Total # of neighbors = 63087
Ave neighs/atom = 1.85212
Neighbor list builds = 141459
Dangerous builds = 0

write_data        C39H37O10NS_gcmc4ns.data




Total wall time: 10:58:11
