LAMMPS (16 Mar 2018)
#

# variables available on command line

variable        T index 293.15      # K
variable        P index 5      # MPa
variable	    fe index 1.0302
variable        Patm equal ${P}/0.101325       # atm
variable        Patm equal 5/0.101325       

# global model settings

echo               both
units              real
dimension          3
atom_style         atomic
boundary           p p p

read_data         C100H82N2O5S2.data
  orthogonal box = (0 0 -70) to (200.008 30.0013 70)
  5 by 1 by 1 MPI processor grid
  reading atoms ...
  33616 atoms
pair_style         lj/cut   12.5
pair_modify        shift yes mix arithmetic

# pair_coeff

pair_coeff 	1	1	0.105	3.851
pair_coeff 	2	2	0.105	3.851
pair_coeff 	3	3	0.105	3.851
pair_coeff 	4	4	0.105	3.851
pair_coeff 	5	5	0.105	3.851
pair_coeff 	6	6	0.274	4.035
pair_coeff 	7	7	0.06	3.5
pair_coeff 	8	8	0.105	3.851
pair_coeff 	9	9	0.069	3.66
pair_coeff 	10	10	0.069	3.66
pair_coeff 	11	11	0.105	3.851
pair_coeff 	12	12	0.06	3.5
pair_coeff 	13	13	0.06	3.5
pair_coeff 	14	14    0.044 2.886
pair_coeff 	15	15    0.044 2.886
pair_coeff 	16	16    0.044 2.886
pair_coeff 	17	17    0.072896 2.958

# region

region            soall  block  EDGE EDGE EDGE EDGE -22  22 units box side in

# define groups

group		      ggcmc type 17
0 atoms in group ggcmc
group             wall  type < 17
33616 atoms in group wall

neighbor          2.0 bin
neigh_modify      every 1 delay 1 check yes  exclude group wall wall

#MD settings

variable 	      type17 atom "type==17"
group 	            type17 dynamic ggcmc var type17
dynamic group type17 defined
variable          nH2 equal count(type17)
compute           mtem type17 temp/com
compute_modify    mtem dynamic/dof yes

fix               1  wall nve/noforce  # move linear 0 0 0

# gcmc
fix               2 ggcmc gcmc 100 100 100 17 29494  ${T} 1 0.5 region soall pressure ${Patm} fugacity_coeff ${fe} group ggcmc
fix               2 ggcmc gcmc 100 100 100 17 29494  293.15 1 0.5 region soall pressure ${Patm} fugacity_coeff ${fe} group ggcmc
fix               2 ggcmc gcmc 100 100 100 17 29494  293.15 1 0.5 region soall pressure 49.3461633358006 fugacity_coeff ${fe} group ggcmc
fix               2 ggcmc gcmc 100 100 100 17 29494  293.15 1 0.5 region soall pressure 49.3461633358006 fugacity_coeff 1.0302 group ggcmc

fix               3 type17 nvt temp ${T}  ${T}  100
fix               3 type17 nvt temp 293.15  ${T}  100
fix               3 type17 nvt temp 293.15  293.15  100
fix_modify        3 temp mtem
WARNING: Temperature for fix modify is not for group all (../fix_nh.cpp:1404)

thermo            1000
thermo_style      custom step c_mtem pe ke atoms v_nH2

run               1000000
Neighbor list info ...
  update every 1 steps, delay 1 steps, check yes
  max neighbors/atom: 2000, page size: 100000
  master list distance cutoff = 14.5
  ghost atom cutoff = 14.5
  binsize = 7.25, bins = 28 5 20
  1 neighbor lists, perpetual/occasional/extra = 1 0 0
  (1) pair lj/cut, perpetual
      attributes: half, newton on
      pair build: half/bin/atomonly/newton
      stencil: half/bin/3d/newton
      bin: standard
Per MPI rank memory allocation (min/avg/max) = 6.104 | 6.118 | 6.133 Mbytes
Step c_mtem PotEng KinEng Atoms v_nH2 
       0            0            0            0    33616            0 
    1000    295.67562   -13.664644    222.35646    33869          253 
    2000    281.53525   -22.617901    266.91715    33934          318 
    3000    297.53882   -28.429799    347.82246    34008          392 
    4000    287.61391   -34.413742    329.69002    34001          385 
    5000    290.83736   -37.823216    327.76006    33995          379 
    6000    287.32831   -36.440997    354.74051    34031          415 
    7000    273.31714   -47.536543    337.25231    34030          414 
    8000    295.46674   -54.748301    363.05887    34029          413 
    9000    310.41156   -57.500889    367.96371    34013          397 
   10000    297.75824   -42.108847    350.66878    34012          396 
   11000    302.62733   -52.749554    366.26191    34022          406 
   12000    287.76847   -49.247768     364.7294    34041          425 
   13000      284.828   -48.694522    340.29685    34017          401 
   14000    301.08778   -52.952251    373.80502    34033          417 
   15000    327.54537   -45.941114    412.15155    34038          422 
   16000    262.28336   -52.241381    323.81556    34031          415 
   17000    293.34148   -49.126394    348.11398    34015          399 
   18000    296.61536   -48.727694    354.26721    34016          400 
   19000    281.64807   -53.847171    347.62193    34031          415 
   20000    295.92515   -46.458773    355.73261    34019          403 
   21000      284.987   -55.490173    354.91162    34034          418 
   22000    287.87731   -55.619486    355.04737    34028          412 
   23000    310.09602   -58.073528    389.27228    34038          422 
   24000     292.2005   -54.049122    385.89528    34059          443 
   25000    293.55826   -56.382996    364.02943    34032          416 
   26000    286.91651   -51.111333    340.42713    34015          399 
   27000    282.47431   -49.005311    321.29625    33998          382 
   28000     321.4318   -56.871694    376.60234    34010          394 
   29000    295.46066   -65.630675    364.36801    34030          414 
   30000    299.26364   -64.305461    357.93088    34018          402 
   31000    272.82668   -63.257148    349.71841    34047          431 
   32000    300.74958   -68.266131    385.28402    34046          430 
   33000    295.47536   -63.898915    391.55207    34060          444 
   34000    305.74307   -59.189822    362.45882    34012          396 
   35000    304.87404   -54.796972    379.33725    34030          414 
   36000    290.75769   -62.506118    364.94557    34036          420 
   37000    300.97249   -51.630034    372.24663    34029          413 
   38000    289.55819   -60.851883    379.34561    34056          440 
   39000    304.25049   -56.792918    392.07751    34049          433 
   40000     295.9842   -62.735937    387.71851    34056          440 
   41000    301.16719   -58.338644    388.09591    34049          433 
   42000     286.9058   -61.306265    353.35477    34029          413 
   43000    289.25019   -52.449372     354.6905    34028          412 
   44000    292.62751   -57.337336    358.90441    34028          412 
   45000    305.20286   -61.394194    403.92111    34060          444 
   46000     294.7246   -62.759682    371.11088    34038          422 
   47000    299.74042   -66.728556    382.61372    34045          429 
   48000    286.71434   -64.817449    386.83941    34069          453 
   49000    311.65927   -61.664163    419.69009    34068          452 
   50000    297.06305   -59.096775    362.72624    34026          410 
   51000     272.3994   -66.337248    319.45395    34009          393 
   52000    304.61198   -57.735297    371.76216    34026          410 
   53000    298.54391   -57.539345     359.3977    34020          404 
   54000    309.84664   -52.645324     389.1374    34038          422 
   55000    276.44116   -56.214831    334.13986    34022          406 
   56000    296.40164   -60.725378    365.37141    34030          414 
   57000    314.91061   -65.075702    430.14179    34075          459 
   58000    286.92155   -67.289869    375.14418    34055          439 
   59000    296.46253   -65.520874     396.8505    34066          450 
   60000    299.93589   -60.302716    382.71259    34044          428 
   61000    289.21249   -55.304289     353.1919    34026          410 
   62000    294.82517   -57.054441    389.61045    34060          444 
   63000     291.0177   -59.487922    371.45487    34044          428 
   64000    287.18234   -57.008311    351.13633    34027          411 
   65000    289.97099   -57.311415    352.48196    34024          408 
   66000    297.42431   -57.145598    336.02006    33993          377 
   67000    279.88763   -57.325188    332.35914    34015          399 
   68000     291.1967   -61.652881    365.36888    34037          421 
   69000    306.67122   -57.928533    375.87085    34028          412 
   70000    292.92186   -60.100167    368.36343    34038          422 
   71000    307.75954   -64.341739    411.93314    34066          450 
   72000      291.064   -53.975634    367.12352    34040          424 
   73000    295.27061   -61.031237    351.70173    34016          400 
   74000    295.85129   -50.007065    347.29788    34010          394 
   75000    316.27504   -54.873162    374.39135    34014          398 
   76000    286.54872    -57.33893    351.40501    34025          409 
   77000    292.06136   -60.202724    394.27695    34069          453 
   78000     288.6801   -70.044026    385.50698    34064          448 
   79000    301.47822   -65.021977    379.53381    34039          423 
   80000    297.24443   -61.867803    392.43337    34059          443 
   81000    289.05896   -61.538291    358.10479    34031          415 
   82000    330.40003   -59.804358    409.50424    34032          416 
   83000    288.33572   -54.781997    337.01558    34009          393 
   84000    301.89208   -57.439944    411.16435    34073          457 
   85000    291.64961    -59.77627    360.72244    34031          415 
   86000    301.33311   -57.547307      357.059    34013          397 
   87000    290.30457   -57.786296    341.50633    34011          395 
   88000    291.58304   -53.587207    340.97477    34008          392 
   89000    300.45363    -59.24636    376.17553    34036          420 
   90000    299.69962   -65.194844    385.06627    34046          430 
   91000    290.68685   -61.876834    383.87567    34059          443 
   92000    302.35644   -60.461235    375.03783    34032          416 
   93000    290.89986   -56.983184    351.32327    34022          406 
   94000    284.89731   -54.061115    360.52935    34040          424 
   95000     290.2281   -54.956589    350.32983    34021          405 
   96000    277.98848   -57.262153    351.59025    34041          425 
   97000    304.10311   -48.993056    358.47316    34011          395 
   98000    279.16917   -56.052992    326.61538    34009          393 
   99000    294.59004   -59.555148    349.60585    34015          399 
  100000    299.65599   -48.440202    351.87692    34009          393 
  101000    288.83071   -54.213268    353.90118    34028          412 
  102000    290.97918   -49.402335     356.7089    34027          411 
  103000    291.80922    -54.50955    391.66643    34064          448 
  104000     298.8193   -51.313866     375.5012    34038          422 
  105000    299.39899   -50.041276    362.37588    34020          404 
  106000    290.68961   -47.043853       356.85    34028          412 
  107000    307.76512   -47.697714    384.67779    34036          420 
  108000    277.02644   -43.376191    296.59374    33976          360 
  109000    296.80826   -44.517608    351.79263    34014          398 
  110000    298.24162    -46.48558    342.20118    34001          385 
  111000    308.67614   -48.313971    351.03932    33998          382 
  112000    260.38804   -52.114906     300.4259    34003          387 
  113000    290.36013   -48.962938    342.08656    34012          396 
  114000    299.53651   -57.524042    360.04187    34019          403 
  115000    282.56859   -52.145003    328.30641    34005          389 
  116000    285.47089    -53.48667    345.78076    34023          407 
  117000    282.98475   -54.429311    371.86222    34056          440 
  118000    288.27183   -55.995719    352.60106    34027          411 
  119000    276.56023    -45.09074      317.442    34002          386 
  120000    301.32981   -65.378548    392.04162    34052          436 
  121000    296.98017   -57.547991    362.39023    34026          410 
  122000    282.06916   -63.814091    350.44929    34033          417 
  123000    268.88397   -61.504944    370.57156    34079          463 
  124000     288.8596   -59.544644    370.48711    34046          430 
  125000    293.96677   -61.747255    385.81108    34057          441 
  126000    283.03656    -58.34061    365.39179    34048          432 
  127000    298.48188   -58.254781    385.94864    34050          434 
  128000    280.61589   -61.985463    365.38375    34053          437 
  129000    301.85016   -61.667966    361.94538    34018          402 
  130000     286.2412   -52.563571    365.43497    34044          428 
  131000    290.40194   -53.307888    372.35252    34044          428 
  132000    312.03999   -49.533681    395.60983    34042          426 
  133000    295.54744   -54.621428    368.08998    34034          418 
  134000    321.42559    -56.97306    392.52316    34025          409 
  135000    279.28592    -59.00616    348.68303    34035          419 
  136000    294.32819   -65.915212    384.26819    34054          438 
  137000    280.00344   -59.644725    358.26992    34046          430 
  138000    283.15524   -60.097031    364.77116    34049          433 
  139000    294.54601   -53.440056    374.40609    34041          425 
  140000    288.56111   -55.738477    359.19919    34034          418 
  141000     292.4197   -61.343271     357.3351    34026          410 
  142000    276.98513   -61.077869     372.8567    34068          452 
  143000    301.65525   -63.170464    387.24393    34047          431 
  144000     283.5671   -50.600762    336.60414    34015          399 
  145000    303.81478   -49.550697    384.81344    34041          425 
  146000     297.4699   -55.394686    375.50425    34039          423 
  147000    282.57929   -55.847207    354.97986    34038          422 
  148000    293.84011    -57.94675    381.65053    34052          436 
  149000    302.16174   -62.261575    395.47418    34054          438 
  150000    307.98302   -58.782032    389.78173    34039          423 
  151000    278.92416   -56.513332    343.11737    34029          413 
  152000    283.54921   -61.889013    366.12525    34050          434 
  153000    289.30601   -56.698239    404.25179    34085          469 
  154000    283.22354   -61.966603    367.09243    34051          435 
  155000    276.45924   -61.857825    347.12608    34037          421 
  156000     295.8261   -71.169436    391.78509    34061          445 
  157000    288.24929   -60.400528    358.70079    34034          418 
  158000    271.40835   -57.512092    319.97301    34012          396 
  159000    282.66732     -49.2172    303.50352    33977          361 
  160000    295.15067   -61.986532    371.31213    34038          422 
  161000    299.13808    -44.52744    371.38238    34032          416 
  162000    298.15582   -55.400844    379.07976    34043          427 
  163000    277.70671   -53.514797    333.82277    34019          403 
  164000    284.86667   -53.836233     342.0406    34019          403 
  165000    281.77716   -49.445015    364.00494    34050          434 
  166000    302.46719   -51.475478    384.01344    34042          426 
  167000    289.75096   -52.803968    359.91445    34032          416 
  168000    309.68788   -51.598191    368.85035    34015          399 
  169000    295.89358   -56.102727    361.93909    34027          411 
  170000    291.29378   -60.340825    366.07632    34038          422 
  171000    308.58628   -62.292243    413.62989    34066          450 
  172000    312.49234   -64.946642    399.08279    34044          428 
  173000    270.73337   -58.162081    328.65202    34023          407 
  174000    292.30961   -54.450761     367.8814    34038          422 
  175000    305.85726   -58.387869     367.9564    34019          403 
  176000    302.79307   -63.588691     393.5052    34052          436 
  177000     290.3089   -72.147247    373.64692    34048          432 
  178000    301.05353    -64.91268    358.25242    34015          399 
  179000    289.86809   -64.302355    377.06192    34051          435 
  180000    310.46887   -64.119435    400.19013    34048          432 
  181000    286.79622   -61.889413    360.84205    34038          422 
  182000    312.30705   -55.225926    383.77815    34028          412 
  183000    286.74979   -53.743786    359.26688    34037          421 
  184000    290.23906    -50.41477    361.89688    34034          418 
  185000    307.77841   -48.201815    375.71712    34022          406 
  186000    293.85529   -54.038123    336.32428    33999          383 
  187000    294.04132   -63.923812    390.11359    34062          446 
  188000    293.94485   -50.227934    343.61282    34009          393 
  189000    307.82666   -54.588882    396.27454    34048          432 
  190000     284.6324   -64.294297    331.94486    34007          391 
  191000    294.29824   -60.373076     387.6888    34058          442 
  192000    286.63133   -57.579654      364.064    34042          426 
  193000    310.19232   -66.094533    413.57361    34064          448 
  194000    288.42268   -54.258376    350.05692    34024          408 
  195000    303.14165   -60.633842    377.01083    34034          418 
  196000    298.97518   -54.137224    356.64725    34016          400 
  197000    289.75371   -50.184278    343.41904    34014          398 
  198000    284.56947   -58.272377     325.7129    34000          384 
  199000    294.79138   -57.216272    367.61787    34034          418 
  200000    306.69182   -60.969688    395.23961    34048          432 
  201000    284.48138   -55.393936    338.81437    34014          398 
  202000    301.67593   -53.573078    383.72143    34043          427 
  203000    307.60353   -54.581034    365.35999    34015          399 
  204000    309.38837   -53.699749    358.30629    34005          389 
  205000    297.60987   -44.503671    353.60238    34015          399 
  206000    294.89344   -55.362616    378.98556    34047          431 
  207000    283.75451   -52.699892    330.79511    34008          392 
  208000    290.81448   -52.024713    362.23126    34032          416 
  209000    311.37994   -53.928136    341.24665    33984          368 
  210000     286.6151   -53.915205    318.84253    33990          374 
  211000    283.15983   -61.814787    339.68177    34019          403 
  212000    307.44925   -56.861994    395.09227    34048          432 
  213000    304.90667   -51.116941     378.2878    34032          416 
  214000    279.43667   -53.726081     340.1541    34025          409 
  215000    297.92781   -61.095312    387.17782    34051          435 
  216000    305.59238   -68.083158    408.48698    34065          449 
  217000    292.23734   -60.756391    355.55726    34023          407 
  218000        263.6   -59.252323    354.20363    34065          449 
  219000     286.2054   -65.848177    374.14508    34055          439 
  220000    291.44426   -65.393148    369.75159    34042          426 
  221000    279.24128    -78.26574    353.32849    34040          424 
  222000     280.9479   -69.552025    380.21939    34068          452 
  223000    273.67782   -69.210468    356.61906    34054          438 
  224000    291.79209   -63.720751    351.50038    34021          405 
  225000    303.15804   -58.823322    379.72809    34036          420 
  226000    289.53062   -68.037706    336.07647    34006          390 
  227000    293.96874   -68.390408    379.81495    34050          434 
  228000    309.53463   -59.649606    372.41951    34020          404 
  229000    283.33782   -67.082078    365.26145    34049          433 
  230000    280.50616   -60.483286    338.26581    34020          404 
  231000    291.49265   -64.771599    358.43442    34029          413 
  232000    271.77742   -58.878084    350.62541    34049          433 
  233000    282.21746    -62.28371     369.0036    34055          439 
  234000    305.48929   -68.558908    380.15003    34034          418 
  235000     297.2139   -61.523705    377.71809    34043          427 
  236000    284.72725   -59.822898    350.21008    34029          413 
  237000    293.15505   -62.073525    339.88226    34004          388 
  238000    315.13997    -57.21956    366.70669    34005          389 
  239000    293.03431   -57.180763    344.32721    34010          394 
  240000    311.92732   -53.404852    364.81196    34009          393 
  241000    285.71283   -55.592025    332.29101    34007          391 
  242000    315.45039   -62.606048    394.28757    34035          419 
  243000    300.49806   -64.022423    402.00305    34065          449 
  244000      295.306   -62.390158    366.56368    34033          417 
  245000    287.40299   -62.850505    349.75864    34025          409 
  246000    292.34531   -53.017551    352.49294    34020          404 
  247000    286.36797   -53.783357    344.03335    34019          403 
  248000     276.8531   -58.966592    351.83706    34043          427 
  249000    274.69889   -52.353179    336.27968    34027          411 
  250000    300.67394     -52.2812    379.91443    34040          424 
  251000    285.00416   -64.037605    380.00747    34064          448 
  252000    285.74717    -64.92587    370.47136    34050          434 
  253000    282.36941   -66.684938    337.80675    34018          402 
  254000    274.64752   -53.023387    314.74532    34001          385 
  255000    303.88287   -45.131462    349.76702    34002          386 
  256000    276.22811   -48.609216    328.04047    34014          398 
  257000    281.21576   -48.239441    311.23865    33988          372 
  258000    283.47107   -53.904193    345.94133    34026          410 
  259000    293.51614    -60.10843       363.39    34032          416 
  260000    288.48482   -60.130094    376.71042    34054          438 
  261000    292.83579    -55.76899     385.6817    34058          442 
  262000    310.22617   -52.668693    385.29055    34033          417 
  263000     281.5657   -57.585691    336.38822    34017          401 
  264000     275.9161   -56.564049    364.85259    34059          443 
  265000    306.36109   -59.959627    377.48124    34030          414 
  266000    319.16898   -57.111812    407.91184    34044          428 
  267000    302.47813   -55.735048    357.81694    34012          396 
  268000    310.79165   -55.398812    368.54428    34014          398 
  269000    272.37239   -51.929841    313.05457    34001          385 
  270000    293.19084    -49.73899     347.7338    34014          398 
  271000    295.44921   -57.672027    329.92596    33991          375 
  272000    287.08077   -59.125814    363.38141    34039          423 
  273000    311.91066   -59.786786    419.05315    34067          451 
  274000    312.64242    -62.18611    371.45287    34015          399 
  275000     292.0858   -51.818972     365.5763    34036          420 
  276000    294.39426   -59.752098    383.96848    34053          437 
  277000    304.66791   -61.571224    373.45368    34028          412 
  278000    297.52937    -55.84474    355.80659    34018          402 
  279000    283.15026   -55.679406     366.6001    34051          435 
  280000    306.36377    -59.98715     404.9227    34060          444 
  281000    299.26923   -58.020874    368.80886    34030          414 
  282000    288.67162   -55.719388    343.19762    34015          399 
  283000    291.83677   -47.997213    378.57914    34050          434 
  284000    268.06601   -53.406021    316.53452    34012          396 
  285000    283.65603   -53.053561    357.56788    34039          423 
  286000    289.96553   -57.912975    314.74943    33981          365 
  287000    287.71209   -43.829536    340.87405    34013          397 
  288000    286.67589   -56.974547    349.17495    34024          408 
  289000    296.28346   -54.943676    372.04598    34038          422 
  290000    322.68412   -52.537085    396.24516    34028          412 
  291000     298.6568   -61.427694    356.65232    34017          401 
  292000     277.3919   -54.369834     332.4793    34019          403 
  293000    311.93583   -57.342365    374.13088    34019          403 
  294000    293.29416   -58.243251    364.65608    34033          417 
  295000     286.2024   -60.092713    378.08017    34059          443 
  296000    287.20585    -61.76008    356.25382    34033          417 
  297000    297.12525   -60.040813    344.40933    34005          389 
  298000    304.14033   -56.660867     359.1581    34013          397 
  299000    288.10762   -57.687193    346.10534    34020          404 
  300000    308.35838   -60.463855    361.05568    34009          393 
  301000    297.86332   -59.113921    375.67388    34040          424 
  302000    290.91173   -53.599127     361.7552    34034          418 
  303000    289.94669   -62.060801    362.19969    34034          418 
  304000     287.9781   -68.090303    368.70369    34046          430 
  305000    290.60546   -64.019679    364.99976    34038          422 
  306000    285.24427   -60.530569    348.42838    34025          409 
  307000    290.35213   -53.167501     335.4509    34002          386 
  308000    307.75513    -59.42165    357.96327    34007          391 
  309000    320.54585   -58.342941    371.69666    34005          389 
  310000    300.63977   -61.154926    378.24104    34038          422 
  311000    264.41557   -58.670295    324.21186    34028          412 
  312000    297.33241   -61.460688    393.78221    34061          445 
  313000    278.66348   -63.293725    356.39466    34046          430 
  314000    279.36462   -69.667375    361.53413    34050          434 
  315000     297.2684   -66.467944    362.63887    34025          409 
  316000    291.61788   -67.371016    373.35136    34046          430 
  317000    277.13058   -62.299309    348.43434    34037          421 
  318000    282.73137   -54.620699    383.25373    34071          455 
  319000     312.7898   -60.522219    419.42972    34066          450 
  320000    288.05597    -61.29755    408.77166    34091          475 
  321000    288.60429   -55.133639    366.75718    34043          427 
  322000    309.97795   -59.758855    418.39495    34069          453 
  323000    303.29471    -54.95983    365.35244    34020          404 
  324000     300.0155   -57.640897    374.69122    34035          419 
  325000    307.80476   -52.355413    377.48709    34027          411 
  326000    280.40614   -54.220197    331.17366    34013          397 
  327000    273.06998   -48.091056    339.55156    34034          418 
  328000    292.22887    -51.92957    392.20586    34067          451 
  329000    290.89409   -59.125365    363.43233    34035          419 
  330000    279.84471   -59.843909    336.09438    34019          403 
  331000    303.81825   -57.214359    390.87682    34048          432 
  332000    264.31812   -48.656022     328.7577    34032          416 
  333000    293.06659   -45.388144    380.45905    34052          436 
  334000    289.30647   -51.084934    370.24272    34046          430 
  335000    289.70949   -51.054569    367.26207    34042          426 
  336000    307.54433    -57.46009    390.06986    34042          426 
  337000    284.98602     -63.5414    352.87143    34032          416 
  338000    308.04638   -52.634159    375.05442    34025          409 
  339000    280.07885   -52.653158    352.30851    34037          421 
  340000    294.61886   -64.540128    385.22239    34054          438 
  341000    294.08036   -62.097644    352.54713    34019          403 
  342000    286.72796   -64.613433    346.36527    34021          405 
  343000    301.62438   -66.920689    404.10124    34066          450 
  344000    290.43909   -66.360076    388.28125    34064          448 
  345000    299.57055    -71.74174    402.71781    34067          451 
  346000     311.4729   -63.763209    416.35693    34065          449 
  347000    291.05881   -70.173623    378.49953    34051          435 
  348000     299.0249   -51.800362    365.64284    34026          410 
  349000    300.51708   -60.310898    373.12336    34033          417 
  350000    262.58519   -64.487028    321.44036    34027          411 
  351000    293.06752   -64.704089    370.85429    34041          425 
  352000    270.54194   -53.764872    310.70541    34002          386 
  353000    301.50404   -62.417174    378.94979    34034          418 
  354000     306.1517   -59.400473     377.7398    34030          414 
  355000    277.14612   -60.154098    348.71528    34039          423 
  356000    270.65247   -54.479661    340.52882    34036          420 
  357000    313.18442   -58.462628    380.78241    34024          408 
  358000    304.90582   -65.616759    375.81087    34030          414 
  359000    296.46259   -61.025655     365.0078    34027          411 
  360000    288.96833   -64.642665    362.07755    34036          420 
  361000    298.50794   -64.344334    365.27673    34027          411 
  362000     294.0875   -59.011129    375.54885    34045          429 
  363000    293.19552   -62.264033    405.86188    34081          465 
  364000    270.33516   -60.225939     364.5216    34069          453 
  365000    283.34225   -60.315509    346.87107    34027          411 
  366000    297.79707   -48.696522     354.8434    34016          400 
  367000    302.85227   -50.057078    346.99184    34001          385 
  368000    291.22173   -50.474647    340.99162    34008          392 
  369000    291.18196   -54.192323    345.19691    34014          398 
  370000    321.97841    -55.96526    385.91903    34019          403 
  371000    295.45847    -57.73594    367.84696    34034          418 
  372000    269.18628   -54.055536    321.30185    34017          401 
  373000    290.45101   -61.659383     358.6219    34030          414 
  374000    280.60294   -49.681765    328.13287    34008          392 
  375000    313.16506   -58.229785    383.86327    34028          412 
  376000    300.39447   -57.650481    356.50867    34015          399 
  377000    292.08388    -58.78467    373.00523    34044          428 
  378000     311.3065   -67.118004    403.95911    34050          434 
  379000    285.63007   -71.391104    375.50274    34057          441 
  380000    296.56052   -64.644833    377.82203    34044          428 
  381000    301.89495   -64.046562    394.29505    34055          439 
  382000    306.27029   -66.875149    386.50499    34039          423 
  383000    313.34967   -65.123901    429.72701    34077          461 
  384000    284.31943   -59.844689    368.58381    34050          434 
  385000    285.73881   -56.193003     355.6333    34031          415 
  386000    308.85124   -51.028679    381.55029    34030          414 
  387000    284.32317   -59.291737    356.24609    34036          420 
  388000    272.46666   -59.566087    345.60772    34042          426 
  389000    299.57079   -62.001492    347.11816    34005          389 
  390000    289.37283   -69.836763    369.24605    34045          429 
  391000     299.6193   -69.225927    366.81734    34026          410 
  392000      296.129   -61.245782    364.88727    34027          411 
  393000    310.62411    -67.26034    388.24373    34036          420 
  394000    295.26845   -63.796358    368.95499    34036          420 
  395000    278.72294   -66.241028    355.03377    34044          428 
  396000    306.55291    -68.38242    393.12161    34047          431 
  397000    294.88216   -75.071439    393.93319    34065          449 
  398000      281.156   -70.225925    399.93815    34092          476 
  399000    286.81277   -63.840615    376.77415    34056          440 
  400000    278.36506    -60.33055    362.21283    34052          436 
  401000    307.79436   -57.162296    376.53448    34027          411 
  402000    285.02052   -58.189389    361.26654    34042          426 
  403000    292.00403   -47.586798    371.19572    34042          426 
  404000    277.44699    -55.17638    363.84839    34055          439 
  405000    308.26962   -46.711631    372.61705    34022          406 
  406000    295.09197   -55.959883    340.75711    34004          388 
  407000    304.71717    -63.23629    358.74199    34008          392 
  408000    285.20302   -61.879049     348.9604    34026          410 
  409000    311.83194   -61.272528    380.36119    34026          410 
  410000    293.54562   -58.976547    381.96388    34053          437 
  411000     288.9558   -60.231583    364.65726    34039          423 
  412000    306.85224    -50.87971    386.82367    34038          422 
  413000    298.21162    -60.14379    376.55795    34040          424 
  414000    284.43432    -65.39816    360.50337    34042          426 
  415000    299.05635   -50.539864    349.98844    34009          393 
  416000    293.48418   -45.315143    333.58126    33998          382 
  417000    297.91947   -48.533147    381.43694    34046          430 
  418000    277.90961   -49.770091    330.31804    34015          399 
  419000    295.63425   -57.311706    356.17332    34019          403 
  420000    297.45063    -48.90651    368.38026    34030          414 
  421000    295.48451    -45.61436    338.03094    34000          384 
  422000     287.2694   -54.146998     340.0052    34012          396 
  423000    301.52297   -49.556998    348.81634    34004          388 
  424000    292.19161    -54.17177      371.226    34043          427 
  425000     278.9027   -61.837686    360.81643    34050          434 
  426000    301.72191   -66.859657    403.52653    34064          448 
  427000    306.99823   -65.505665    440.76932    34098          482 
  428000    279.38583   -69.758717    384.56775    34076          460 
  429000    310.44674   -62.079096    410.16127    34060          444 
  430000    297.52343   -59.524747    368.15206    34029          413 
  431000    297.09124   -55.897609    363.49278    34026          410 
  432000    296.93963   -62.322735    366.65287    34031          415 
  433000    287.78688   -60.254514    351.04165    34025          409 
  434000    306.68682   -66.993774    349.48934    33999          383 
  435000    276.61879   -61.485699    349.61348    34040          424 
  436000    307.92111   -61.319899     384.6485    34036          420 
  437000    300.28087   -53.302457    382.73635    34044          428 
  438000     285.2213   -60.254836    363.05221    34043          427 
  439000    282.82456   -56.169418     362.5128    34046          430 
  440000    292.04556   -56.775439    367.17326    34038          422 
  441000    296.03868   -62.709387    376.14177    34040          424 
  442000    277.38452   -62.593586     355.4717    34045          429 
  443000    287.54759   -55.394092    352.75342    34027          411 
  444000     306.3194   -55.693542    362.60064    34013          397 
  445000    300.16381   -60.797681    361.75746    34021          405 
  446000    292.45187   -61.828891    355.37509    34024          408 
  447000    281.19351   -54.109607    345.32149    34026          410 
  448000    275.09366    -60.32637    348.03716    34041          425 
  449000    290.07921   -68.316531    390.22215    34068          452 
  450000    294.62915   -68.390268    381.98698    34051          435 
  451000    280.74807   -66.142391    357.59971    34044          428 
  452000    296.73701   -69.019648    403.85781    34073          457 
  453000    274.76645   -65.364364    350.87104    34045          429 
  454000    303.86673   -62.929734    396.76475    34055          439 
  455000    307.04457   -77.145423    429.20447    34085          469 
  456000    275.66942   -65.665431    365.43295    34059          443 
  457000    298.08967   -69.342719    386.82933    34052          436 
  458000    276.94718   -65.661838    367.39311    34061          445 
  459000     315.2199   -65.203923    450.00696    34095          479 
  460000     291.2588   -66.798605    359.60769    34031          415 
  461000    271.79816    -66.11469    341.53046    34038          422 
  462000    297.74415   -71.270184    362.76363    34024          408 
  463000    307.81555   -60.432521    367.29808    34017          401 
  464000    282.58801   -51.491645    328.99266    34007          391 
  465000    290.39135   -47.918446    347.27342    34018          402 
  466000    293.76033   -55.630622    379.66783    34050          434 
  467000    264.03105   -51.374035    336.44996    34043          427 
  468000    275.64326   -58.327458    355.09694    34049          433 
  469000    278.33906   -53.575638      355.505    34043          427 
  470000      281.148   -67.242516    383.25318    34074          458 
  471000    260.62249   -67.986981    337.35893    34051          435 
  472000    283.63068   -57.930985    361.95197    34043          427 
  473000    300.39583   -61.360072     412.8149    34078          462 
  474000    288.73397   -49.558895    327.25124    33997          381 
  475000     313.3967   -59.798628    391.01665    34034          418 
  476000    289.39276   -62.250636    372.92837    34049          433 
  477000    286.03867   -65.862922    356.87515    34035          419 
  478000     297.0773   -57.499528    384.22959    34050          434 
  479000    280.28728   -58.551524    358.03962    34044          428 
  480000    311.01877   -47.596136    348.80501    33992          376 
  481000      310.805   -46.261387    319.96664    33962          346 
  482000    273.80412   -51.524091    311.10979    33997          381 
  483000    302.72012   -47.905824    354.72761    34010          394 
  484000    313.92808    -64.77057    371.63707    34013          397 
  485000    270.04561   -59.085292    328.64885    34024          408 
  486000    293.81467   -53.747849     331.3699    33994          378 
  487000    288.37062   -62.059996    328.59505    33999          383 
  488000    284.94825   -57.238598    358.55884    34039          423 
  489000    303.32321   -62.232499     394.8366    34053          437 
  490000    301.08857   -61.102957    377.20852    34037          421 
  491000    282.41926   -50.828109    330.40075    34008          392 
  492000    287.44195   -54.378781    347.32105    34019          403 
  493000    293.05965   -57.571907    375.08932    34046          430 
  494000    294.24342   -59.377867    352.35471    34017          401 
  495000    289.55765   -56.724787    351.30287    34022          406 
  496000    310.11628   -49.076698    375.89692    34021          405 
  497000    302.52861   -56.592991    361.07348    34016          400 
  498000     274.6279   -50.741714    334.15073    34025          409 
  499000    303.48433   -43.731131    369.65733    34024          408 
  500000    296.87043   -49.895759    336.83902    33996          380 
  501000    284.00232   -46.793566    314.96763    33988          372 
  502000     293.0069   -49.068575    338.54003    34004          388 
  503000    281.66469    -48.25025    353.71097    34036          420 
  504000    292.84719   -48.812165    368.11404    34038          422 
  505000    305.45645   -49.775176    368.23941    34021          405 
  506000    283.53985   -55.842612    340.46452    34019          403 
  507000    310.12543   -68.019046    380.60037    34028          412 
  508000    302.78727   -66.294559    360.24931    34016          400 
  509000    303.78266   -63.448379    364.70464    34019          403 
  510000    298.78576   -61.241426    401.48688    34066          450 
  511000    272.50894   -68.118484    356.00812    34053          437 
  512000    286.57364   -59.562354    369.33122    34049          433 
  513000    314.74059   -62.585226    393.23746    34036          420 
  514000    285.71503   -59.159581    357.21299    34036          420 
  515000    279.17434   -59.393795    323.06939    34005          389 
  516000    275.41285    -56.53881    323.54121    34011          395 
  517000    300.63298   -53.068954    354.91531    34012          396 
  518000     301.9849    -48.49532    363.06661    34018          402 
  519000    302.57376   -52.390296    367.34739    34024          408 
  520000    317.33947   -59.666731    407.04778    34047          431 
  521000    287.64291   -55.657666     364.5043    34040          424 
  522000    285.32536   -51.733169    361.50594    34041          425 
  523000    292.10826   -47.353873    380.53571    34054          438 
  524000    281.99499    -51.71728    341.71706    34023          407 
  525000    286.35166    -51.22008    344.98683    34020          404 
  526000      286.393   -50.801928    356.16646    34034          418 
  527000    300.17386   -48.014033    367.63605    34027          411 
  528000    277.22491   -51.057036    319.78848    34002          386 
  529000    318.95355   -50.419059    383.88077    34020          404 
  530000     280.4903   -55.231933    337.53227    34020          404 
  531000    277.49771   -66.235106    375.99315    34070          454 
  532000    317.68033    -66.90323    393.42599    34032          416 
  533000    299.23418   -52.732325    377.52452    34040          424 
  534000    317.30045   -54.745644    382.56777    34021          405 
  535000     282.7893   -65.811303    325.23028    34002          386 
  536000     276.6069   -67.323854    348.78704    34038          422 
  537000    298.12396   -57.171829    365.44825    34027          411 
  538000    295.38368    -59.57441    355.92032    34021          405 
  539000    282.49014     -58.2152    330.35482    34009          393 
  540000    296.01554   -50.375089     340.1439    34002          386 
  541000    309.40454   -57.344718     365.7977    34013          397 
  542000    280.19214   -57.840602    333.97857    34016          400 
  543000     285.8195   -50.333928    350.80287    34027          411 
  544000    305.84774   -51.556861    379.74637    34033          417 
  545000    286.12333   -47.230917    341.95064    34015          399 
  546000    300.07624   -57.744837    360.62855    34019          403 
  547000    308.74434   -59.999639    373.56081    34020          404 
  548000    283.80563   -53.355104      381.697    34067          451 
  549000    283.02099   -73.511125     390.7023    34080          464 
  550000    307.95252   -59.502456    371.54102    34021          405 
  551000    291.05899   -60.971898    343.22741    34012          396 
  552000    278.07689   -58.704042    325.15414    34008          392 
  553000    312.00347   -61.137082      393.109    34039          423 
  554000    289.71871   -56.577368    354.81304    34026          410 
  555000    309.79573   -61.969351     363.2238    34010          394 
  556000    291.84103   -67.279154    357.32852    34026          410 
  557000    285.90172   -55.979047     328.1776    34000          384 
  558000    299.00952   -59.436965    381.94009    34045          429 
  559000    303.87392   -70.469018    379.29542    34035          419 
  560000    290.25854   -70.219024    377.76947    34052          436 
  561000    298.75638   -57.160036    372.91777    34035          419 
  562000    279.44484   -68.117174    371.85207    34063          447 
  563000    306.08026   -70.217387    401.80222    34054          438 
  564000    290.31643   -62.719595    394.84203    34072          456 
  565000    294.70483   -75.330589    408.00649    34081          465 
  566000    288.30785   -62.923539    371.66245    34049          433 
  567000    308.17685   -73.412617    403.47719    34055          439 
  568000    306.28601   -72.444543    367.60947    34016          400 
  569000    281.65676   -56.750072    330.14828    34010          394 
  570000    268.01932   -68.932906    343.07221    34045          429 
  571000    278.34382   -59.001222    364.52243    34056          440 
  572000    287.16375   -65.340202    383.87238    34064          448 
  573000    316.18982   -68.347916    400.42999    34041          425 
  574000    294.32354   -69.472003    390.12468    34059          443 
  575000    296.98756   -66.301563    351.29915    34013          397 
  576000      302.126   -64.797083    398.37918    34059          443 
  577000    302.38236   -62.484358    385.94833    34044          428 
  578000    274.70031     -61.6463    342.66402    34035          419 
  579000    281.06036   -57.747306    344.59205    34028          412 
  580000    289.36303   -61.125477    360.18593    34034          418 
  581000     283.5873   -63.811466    363.06574    34044          428 
  582000    303.37796   -63.687669    425.13869    34086          470 
  583000    290.86427   -68.139953    354.11292    34025          409 
  584000     286.3538    -59.59132    340.78317    34016          400 
  585000    305.09193   -51.648422    354.32747    34006          390 
  586000    297.44403   -60.962491    356.73196    34019          403 
  587000    297.84606   -48.027643    341.07488    34000          384 
  588000    284.12179   -60.155083     337.5342    34014          398 
  589000    295.53947   -53.906061    345.53327    34009          393 
  590000     309.7026   -46.376426    380.67455    34029          413 
  591000    303.70727   -47.809627    376.32829    34032          416 
  592000    283.11619   -49.907017    341.43038    34021          405 
  593000    283.34519   -38.250006    329.75174    34007          391 
  594000    313.93589   -49.378175     363.7322    34005          389 
  595000    303.69333   -49.985649    373.32988    34028          412 
  596000    298.00832   -53.357147    353.68372    34015          399 
  597000    307.60179    -50.19712    396.31903    34048          432 
  598000    293.85155    -53.40126    392.66032    34065          449 
  599000     297.5607   -51.524929    393.89442    34060          444 
  600000    286.30957   -58.617168    360.53046    34038          422 
  601000    296.43941   -49.457917    361.94021    34026          410 
  602000    295.29275   -53.036865    366.70131    34032          416 
  603000    297.44542   -57.944299     348.0464    34009          393 
  604000    303.76837   -60.607037    417.36824    34076          460 
  605000    285.51122    -64.88921    409.07338    34096          480 
  606000    317.46831    -58.55849    419.36369    34060          444 
  607000    311.01081   -54.816861    381.11427    34027          411 
  608000    289.15059   -61.898604    358.86914    34032          416 
  609000    279.24698   -58.239366     333.3815    34017          401 
  610000    290.60517   -60.264699    368.45932    34041          425 
  611000    312.58112   -53.131899    387.16677    34032          416 
  612000    264.99364   -47.250985    319.96668    34022          406 
  613000     287.0384   -50.096354    356.31248    34033          417 
  614000    291.94568   -63.107257    378.38157    34051          435 
  615000    302.81467   -54.405031    377.65356    34034          418 
  616000    288.07774   -62.213544    365.23841    34041          425 
  617000    296.52506   -52.943332    375.43747    34040          424 
  618000    287.85126   -51.261644    332.86146    34004          388 
  619000    283.47158   -51.164897    330.62476    34005          389 
  620000    296.98616   -48.259636    354.21278    34015          399 
  621000    306.35342   -49.982249    369.43182    34020          404 
  622000     297.6727   -55.870013      367.971    34031          415 
  623000    300.07599   -57.645438    362.26556    34021          405 
  624000    292.37318   -50.960591    351.47287    34019          403 
  625000    313.79554    -52.63911    342.68701    33983          367 
  626000      293.909   -51.965414    333.88773    33998          382 
  627000     309.7083   -56.907948     361.2383    34008          392 
  628000    304.58393   -60.177839    374.70129    34029          413 
  629000    304.51503   -54.222232    371.60604    34023          407 
  630000    283.70975   -57.401316    365.91369    34049          433 
  631000    290.05649   -55.328189    342.60407    34013          397 
  632000    292.95101   -51.194764    369.51693    34040          424 
  633000    273.93971   -56.586626     344.9397    34039          423 
  634000    301.54896   -61.052944     370.4173    34029          413 
  635000     276.1641   -58.548791    345.45763    34036          420 
  636000     307.5651   -64.277746    398.17661    34050          434 
  637000    284.87539   -59.052266    358.83675    34039          423 
  638000    288.14621   -58.909156    379.38387    34058          442 
  639000    283.33385   -59.051967    343.76092    34022          406 
  640000    302.83379   -53.514638    371.21762    34028          412 
  641000    304.77194   -54.367645    369.13692    34022          406 
  642000    287.98619   -61.253427    352.62325    34024          408 
  643000    308.11612   -57.937468    383.73563    34034          418 
  644000    295.07024   -57.404752    378.65891    34047          431 
  645000    281.69814   -54.873294     360.0526    34045          429 
  646000    285.12976   -55.388816    325.68379    34000          384 
  647000    303.08478   -62.320797    350.53224    34004          388 
  648000    293.90838   -66.310812     338.8597    34001          385 
  649000     298.7065    -59.62766    377.75284    34041          425 
  650000    279.00428   -63.196781    352.94995    34041          425 
  651000    303.02639   -61.833488     375.8469    34033          417 
  652000    300.35077    -64.86645     375.7254    34036          420 
  653000    319.70703   -56.904632    402.96802    34039          423 
  654000    286.72448   -62.758096    354.07751    34031          415 
  655000    280.09877   -69.601623    354.02535    34040          424 
  656000    319.08804   -64.285181    403.95155    34041          425 
  657000    287.80524   -62.678488    375.14682    34053          437 
  658000    291.71956   -62.529786    362.31061    34033          417 
  659000    301.79593   -61.556327    361.07975    34017          401 
  660000    304.71569   -59.706654    356.78512    34009          393 
  661000    275.63642   -58.960867    304.41782    33986          370 
  662000    302.81526   -57.178675    388.96517    34047          431 
  663000    303.69624   -54.163412    352.35979    34006          390 
  664000    272.67668    -51.18533    329.42496    34021          405 
  665000    295.42049   -56.068173    362.53936    34027          411 
  666000    305.81773   -53.611322    368.98066    34021          405 
  667000    286.10449   -58.568806    340.66655    34015          399 
  668000    301.02947   -58.689026    375.75157    34035          419 
  669000    301.40944    -57.60223    385.52249    34045          429 
  670000     279.9509   -59.267275    371.02512    34061          445 
  671000     274.1139    -57.73688    331.53633    34021          405 
  672000    290.86109   -62.007453    356.40609    34026          410 
  673000    300.46503   -60.757897    355.76055    34014          398 
  674000    300.89939   -61.886963    367.23329    34025          409 
  675000    269.97133   -61.761121    321.31232    34015          399 
  676000     276.6621   -62.512354    340.68468    34028          412 
  677000    282.54861   -64.239184    372.74255    34058          442 
  678000    314.58627   -72.715287    385.06483    34026          410 
  679000    293.54307   -61.543385    385.52386    34057          441 
  680000     305.2094   -75.486634    411.72141    34068          452 
  681000     313.1444   -66.935281    400.64537    34046          430 
  682000    286.93804   -68.023529     379.7198    34060          444 
  683000    291.92802   -68.856052    372.81101    34044          428 
  684000    295.76733    -67.79448    396.18656    34066          450 
  685000    300.91662   -72.819436    421.81379    34087          471 
  686000     302.9853   -62.801676     399.4425    34059          443 
  687000    287.45913   -62.067626    351.75499    34025          409 
  688000    288.37323   -54.762523    343.87796    34016          400 
  689000    274.63801   -56.356893    334.32051    34025          409 
  690000    305.04516   -60.749377    386.49774    34041          425 
  691000    298.38241   -58.750131    379.05411    34042          426 
  692000    288.85465   -56.457717    348.78896    34022          406 
  693000    305.48914   -56.023019    371.74948    34025          409 
  694000     295.3571    -59.16905    369.87079    34035          419 
  695000    291.52441    -59.20447    349.40904    34019          403 
  696000    311.12911   -58.601683    401.35315    34049          433 
  697000    292.25769   -62.170537    347.25299    34014          398 
  698000    292.20638   -66.551754    386.92506    34060          444 
  699000    311.38514   -53.966546    395.48249    34043          427 
  700000    299.58442   -58.318205    373.54074    34035          419 
  701000    290.23584   -64.178856    375.02388    34050          434 
  702000    293.37367    -59.82986    352.78665    34020          404 
  703000    280.17149   -54.252503    334.18033    34016          400 
  704000    288.12574   -64.791025    380.74428    34060          444 
  705000    295.80984    -65.38785    369.21047    34035          419 
  706000    301.10269   -65.963198    384.36805    34045          429 
  707000    277.48881   -63.482743     343.2022    34031          415 
  708000    303.52888   -56.836677    371.54705    34027          411 
  709000    294.55564    -64.25606    361.40386    34028          412 
  710000    319.75864   -60.435331    396.56739    34031          415 
  711000    303.56606   -55.555678    369.00438    34023          407 
  712000    290.83223   -52.890021    372.20313    34046          430 
  713000    288.31711   -58.393513    363.15525    34039          423 
  714000    291.62813   -53.985569    392.55942    34068          452 
  715000    263.60195   -53.660717    319.16167    34021          405 
  716000    288.40832   -51.669657    352.88575    34025          409 
  717000    289.84779   -55.354789    363.42043    34037          421 
  718000    297.82583   -44.789245    346.64867    34007          391 
  719000    291.62288    -50.14931    362.22231    34032          416 
  720000    288.38338   -52.159168    362.18842    34038          422 
  721000    304.38921     -50.4061    376.16452    34030          414 
  722000    311.86087   -55.321108    377.81631    34023          407 
  723000    270.81859   -46.185045    329.96635    34024          408 
  724000    288.46297   -46.031141    343.49964    34016          400 
  725000    287.84889   -52.867162    353.40464    34028          412 
  726000    286.37993   -44.844547    331.99663    34003          387 
  727000    279.95046   -53.526563    348.91165    34035          419 
  728000      295.731   -53.248804    370.05428    34035          419 
  729000    297.28474   -49.112468    374.83773    34039          423 
  730000    279.40604   -55.075517    354.39591    34041          425 
  731000    303.38272   -53.296761     414.2198    34075          459 
  732000    289.76088   -56.025263    356.26857    34028          412 
  733000    294.97388   -67.648902    394.86653    34065          449 
  734000    276.86197   -59.099871    359.56089    34052          436 
  735000    293.03981   -62.897338    347.20085    34014          398 
  736000    301.83813   -57.445451    379.79206    34038          422 
  737000    272.39505   -63.774907    343.05487    34039          423 
  738000    288.83308   -56.295408    355.07753    34029          413 
  739000    284.74292   -54.421801    362.29125    34043          427 
  740000    284.88023   -58.945187    369.75747    34051          435 
  741000    286.23138   -56.758318    373.20321    34054          438 
  742000    290.09393   -62.735802    383.44504    34060          444 
  743000    296.01718   -65.511685    389.58949    34058          442 
  744000    288.18465   -63.849598    355.28965    34030          414 
  745000    282.43836   -64.417763    351.97439    34034          418 
  746000    282.79397   -59.328135    359.56705    34043          427 
  747000    282.52714   -65.122632    369.15742    34053          437 
  748000    276.12231   -59.159298    360.54656    34053          437 
  749000    281.02283   -64.486111     352.2641    34036          420 
  750000    286.06847   -60.985339    348.33959    34024          408 
  751000    294.46298   -57.356475    364.40067    34031          415 
  752000    288.72631   -45.638323    351.22662    34025          409 
  753000    285.55038   -55.314198    340.31697    34016          400 
  754000    298.29201   -48.623772    344.99791    34004          388 
  755000     275.3135   -46.459767    329.76943    34018          402 
  756000     298.3596     -55.9083    355.91364    34017          401 
  757000    292.43843   -47.595175    324.84308    33988          372 
  758000    291.83407   -43.360367    326.00345    33991          375 
  759000    268.36864   -47.566896    324.39341    34021          405 
  760000    289.09213   -55.242004    333.74655    34004          388 
  761000    294.25198   -54.866937    362.17125    34027          411 
  762000    305.48401   -47.655507    372.61349    34025          409 
  763000    278.69416   -53.395547    335.63227    34020          404 
  764000    315.81911   -58.224936    395.62364    34037          421 
  765000    304.40325   -57.614192      360.567    34014          398 
  766000    296.26046   -57.428195    373.83426    34039          423 
  767000    312.92724   -62.817061    372.27108    34016          400 
  768000    294.69916   -60.336931    377.21337    34046          430 
  769000    279.72577   -63.200295    365.36056    34054          438 
  770000    303.83196   -62.561776    390.56786    34047          431 
  771000    290.31806   -62.364019    349.21478    34020          404 
  772000    317.37887   -54.577166    368.08211    34006          390 
  773000    301.24285   -59.689351    375.99988    34034          418 
  774000    286.98838   -58.500862    368.66327    34047          431 
  775000    283.78841   -64.140767    331.16606    34008          392 
  776000    292.32792     -64.6763    380.23968    34052          436 
  777000    276.93518   -51.390742    350.60872    34041          425 
  778000    291.65893   -58.801258    357.78976    34028          412 
  779000    303.26292   -59.189269    397.60703    34056          440 
  780000    282.44013   -61.314013     349.3648    34030          414 
  781000    304.18267   -60.759204    365.86793    34020          404 
  782000    324.56934   -55.052294    390.21699    34020          404 
  783000    305.45902   -51.945203    364.41878    34017          401 
  784000    271.12931   -53.311443    315.85786    34007          391 
  785000    301.69566   -53.295687    355.05592    34011          395 
  786000    289.60974   -59.629775    373.64153    34049          433 
  787000    306.65423   -57.233392    377.73423    34030          414 
  788000    301.08279   -65.445777    401.56634    34064          448 
  789000    286.82312   -59.820515     354.5807    34031          415 
  790000    279.44225   -48.891296    340.25357    34023          407 
  791000    310.52553   -57.110662    409.58116    34058          442 
  792000    281.51914   -58.492021    343.07026    34024          408 
  793000    296.36945    -51.94354    358.53224    34022          406 
  794000    307.12109   -52.014506      374.377    34025          409 
  795000    299.97827   -54.665306    353.59068    34012          396 
  796000    290.64794   -55.074818    354.10375    34025          409 
  797000    291.21409   -58.460334    357.95673    34029          413 
  798000     296.2748   -49.847595    356.67369    34019          403 
  799000    294.07596   -54.348314     348.4118    34014          398 
  800000    268.53255   -51.278366    322.81216    34020          404 
  801000    292.54956   -61.572196    355.37313    34022          406 
  802000    278.87436   -52.766628     340.9597    34027          411 
  803000    301.77595   -59.061271     360.6755    34017          401 
  804000    287.12203      -45.559     334.6503    34007          391 
  805000    293.72658   -48.852297    337.12355    34002          386 
  806000    283.03713   -60.679614    351.37391    34032          416 
  807000    290.97733   -55.648003    366.58586    34038          422 
  808000    302.86773   -56.832379    390.54424    34049          433 
  809000    301.33716    -67.84007    407.87993    34071          455 
  810000     287.8986   -57.587111    359.15644    34035          419 
  811000    275.75249   -49.181564    374.73676    34072          456 
  812000    286.98713   -47.929449    371.70872    34051          435 
  813000    297.89837   -56.448094    372.40964    34035          419 
  814000    256.53423    -49.64828    299.90508    34009          393 
  815000    283.43737   -50.820116    337.73162    34016          400 
  816000    275.91776   -52.614877    334.37065    34023          407 
  817000    315.21934   -55.139145    389.79221    34031          415 
  818000    304.65052   -46.564119    377.33565    34032          416 
  819000    313.20968   -46.849774    379.42224    34023          407 
  820000    304.13391   -48.451384    350.84499    34003          387 
  821000    278.75678    -48.54774    315.59318    33996          380 
  822000    297.12675    -52.90665    381.37285    34047          431 
  823000    296.92937   -58.218228    368.70672    34032          416 
  824000    292.59499   -58.202562    389.06301    34063          447 
  825000    303.15656   -59.034572    387.82407    34043          427 
  826000     301.5646   -57.301657    358.39904    34015          399 
  827000    269.70601   -52.156091    349.82643    34049          433 
  828000    304.43222   -61.322412    396.60045    34054          438 
  829000    289.14458   -59.633757    352.82152    34026          410 
  830000    298.65092   -51.640104    354.50743    34015          399 
  831000    299.82645   -54.338429    371.29224    34032          416 
  832000    286.05865   -54.051081    358.01732    34034          418 
  833000     286.5968   -65.001906    364.44122    34043          427 
  834000    296.64367   -59.486756     366.3057    34031          415 
  835000    293.86738   -52.470269     373.4427    34043          427 
  836000    287.35626    -55.70995    342.65292    34016          400 
  837000    305.31526   -50.340469    367.07629    34020          404 
  838000    303.93113   -46.406676    361.54102    34015          399 
  839000    285.93856   -47.211244    355.56239    34034          418 
  840000     286.6545   -53.144539     362.2296    34040          424 
  841000    280.77994   -51.926312    356.35791    34041          425 
  842000    321.10342   -54.066656    402.63998    34037          421 
  843000    279.61568   -56.499807     345.1501    34030          414 
  844000    308.06801   -53.539183    381.49552    34032          416 
  845000    292.69558   -51.126067    338.25691    34004          388 
  846000    286.73994   -51.336018    345.07319    34020          404 
  847000    279.06776   -47.621391    329.25746    34012          396 
  848000    301.12851   -49.947051    352.46199    34009          393 
  849000    294.83562   -49.418332    327.52106    33989          373 
  850000    323.34642   -57.417114    374.22853    34005          389 
  851000    284.87284   -60.731033    367.51478    34049          433 
  852000    307.30101    -62.16748    346.32981    33994          378 
  853000     270.0356   -55.950623    313.16676    34005          389 
  854000    283.42796   -61.316821     349.7279    34030          414 
  855000    290.78309   -59.132446    373.48136    34047          431 
  856000    289.44134   -53.598311    376.74222    34053          437 
  857000    296.69617   -54.093295    372.08119    34037          421 
  858000    288.62148   -65.141641    359.97134    34034          418 
  859000    313.34944   -60.770939    374.31286    34017          401 
  860000    289.98228   -66.857413    370.64244    34045          429 
  861000    305.16595   -61.371729    360.45893    34012          396 
  862000    300.61241    -62.40258    386.30477    34047          431 
  863000    298.08253   -65.038848    404.37634    34070          454 
  864000    287.77839   -65.731229    388.65897    34068          452 
  865000    278.84722   -67.412161    369.76561    34061          445 
  866000    313.80996   -59.196846    427.92457    34074          458 
  867000    291.08669   -57.591164    385.01744    34060          444 
  868000    309.31624   -58.300006    419.14084    34070          454 
  869000    279.27789   -61.292621    353.29957    34040          424 
  870000    304.08757   -64.390533    375.23545    34030          414 
  871000     275.5853   -58.616681    344.05067    34034          418 
  872000    296.62133   -60.944031    379.94788    34046          430 
  873000    293.91281   -63.950876    375.27648    34044          428 
  874000    280.32681   -63.231287    356.60933    34043          427 
  875000    318.70671   -61.880256    390.15379    34027          411 
  876000    301.24676   -55.043935    361.97271    34020          404 
  877000    277.23059   -54.968256    356.79061    34048          432 
  878000    303.30618   -64.781364    394.38427    34052          436 
  879000    259.84688   -58.484344    312.13589    34019          403 
  880000    313.53357   -60.715567    376.73695    34020          404 
  881000    296.28946   -55.762396    375.53302    34041          425 
  882000    293.52565   -59.580219     388.4533    34060          444 
  883000    292.25789   -63.433724    361.88127    34032          416 
  884000    291.95701   -56.319036    376.15375    34049          433 
  885000    277.63512   -64.784043    375.89298    34071          455 
  886000    297.03311   -63.914017     388.2785    34055          439 
  887000    308.78055    -64.59628    386.50368    34036          420 
  888000    298.86764   -70.811626    389.68558    34054          438 
  889000    286.87832   -62.657259    361.30292    34039          423 
  890000    286.19551   -67.451346    347.82154    34024          408 
  891000    295.92372    -52.33211    398.41992    34067          451 
  892000    298.65596   -58.748852    363.76935    34025          409 
  893000    276.61151   -53.804659    325.70494    34011          395 
  894000    287.19973   -55.071837    355.07709    34031          415 
  895000    294.51131    -43.88293    359.74931    34026          410 
  896000    296.74236   -49.661973    346.96111    34009          393 
  897000    275.35925   -54.883373     337.9997    34027          411 
  898000    275.42013   -49.248686    322.71411    34007          391 
  899000    302.87913   -45.282701    346.61365    34000          384 
  900000    301.58627   -48.001409    368.54058    34025          409 
  901000    295.11003   -61.614101    365.42819    34031          415 
  902000    302.37516   -60.964763    373.75886    34031          415 
  903000    290.03603   -52.014718    369.81005    34044          428 
  904000    314.44956   -58.477998    401.37597    34045          429 
  905000    280.30127   -54.211613    362.18393    34050          434 
  906000    281.39277    -57.81818    364.00758    34050          434 
  907000    299.40332   -71.207791    392.42179    34056          440 
  908000    294.65348   -65.404955    351.38268    34017          401 
  909000    296.04942   -57.334274     366.3035    34029          413 
  910000    296.48848   -63.433554    359.01483    34020          404 
  911000    294.52673     -62.2831    386.37717    34055          439 
  912000    293.05868   -64.838867    381.05392    34053          437 
  913000    312.38422   -64.345226    430.49178    34079          463 
  914000    287.67356   -70.821823    390.59351    34072          456 
  915000     308.6157    -78.44896    424.98896    34078          462 
  916000    285.64561   -73.417236    388.96686    34071          455 
  917000    289.43652   -68.443882    392.46381    34070          454 
  918000    300.56157   -69.194787    373.51512    34033          417 
  919000    286.58459    -67.12228    362.99946    34041          425 
  920000    298.56894    -70.57528    376.03442    34039          423 
  921000    310.89638   -66.875121    375.10468    34021          405 
  922000    296.70242   -67.605664    375.19742    34041          425 
  923000    296.72348   -67.225522    367.41493    34032          416 
  924000    292.54641   -65.071293    389.09826    34063          447 
  925000    297.38318   -64.928803    401.98503    34070          454 
  926000    294.51923   -63.975504     386.3317    34056          440 
  927000    282.14591   -60.369157    331.87227    34009          393 
  928000    286.04785   -63.751479    337.20669    34012          396 
  929000    266.49719   -63.040825    319.98615    34019          403 
  930000    294.27697   -70.379297    368.50855    34035          419 
  931000    277.41546   -65.926177    351.03692    34041          425 
  932000    302.50033   -66.489568    401.03129    34061          445 
  933000     277.5901    -61.01687    345.21327    34034          418 
  934000    266.61726   -61.109624    324.28806    34022          406 
  935000    278.10079   -62.445137    377.14561    34070          454 
  936000     309.2377   -60.020933    408.86016    34058          442 
  937000    301.42799   -60.047036     376.9914    34036          420 
  938000    286.37263   -56.820552    359.19465    34036          420 
  939000    285.86464   -57.357494    341.61967    34016          400 
  940000    301.66098   -67.770885    379.72307    34038          422 
  941000    312.36977   -65.575203    387.87776    34033          417 
  942000    288.72232   -51.128029    380.94868    34059          443 
  943000    298.34465    -61.59311    406.56182    34073          457 
  944000    303.86328   -68.923997    405.46943    34063          447 
  945000    284.19608   -69.243253    356.65342    34037          421 
  946000    296.81833   -79.371716    384.93169    34052          436 
  947000     298.8221   -60.932227    380.86405    34044          428 
  948000    302.79403     -61.2379    345.42222    33999          383 
  949000     296.1115   -65.255535    376.88977    34042          426 
  950000    276.20078   -55.078484    357.07406    34050          434 
  951000    306.46149   -68.937537    407.61991    34062          446 
  952000    310.61758   -73.700312    428.31027    34079          463 
  953000    269.14505   -76.934671    364.96815    34070          454 
  954000    295.09641   -66.742411    376.13276    34044          428 
  955000    308.49864   -61.443461     380.1864    34029          413 
  956000    297.69621   -59.454691    373.71198    34037          421 
  957000    298.14041    -71.86848    362.06329    34024          408 
  958000    298.62002   -64.126127     389.4171    34054          438 
  959000    297.95312   -65.617526    379.48824    34044          428 
  960000    299.68549   -61.912692     392.1713    34054          438 
  961000    283.30446   -66.259768    365.13543    34048          432 
  962000    285.29615   -63.009637    369.49783    34051          435 
  963000    305.46584   -64.455605    376.20133    34030          414 
  964000    294.00453   -61.664316    360.58256    34028          412 
  965000    282.83681   -74.874526    362.22327    34046          430 
  966000      274.803   -70.016337     324.6356    34012          396 
  967000    293.14986   -58.735017    357.22424    34024          408 
  968000    310.98609   -53.765988    389.80737    34036          420 
  969000    297.94247   -65.351987    376.06046    34040          424 
  970000      293.609   -61.928201    361.53302    34029          413 
  971000    327.41094    -62.89931    415.41139    34041          425 
  972000     303.3146   -59.243697     366.7833    34022          406 
  973000    273.63365   -62.510285    333.13234    34025          409 
  974000    301.18576   -54.686574    370.50122    34028          412 
  975000    294.68475   -64.953515    377.74635    34047          431 
  976000    310.91663    -64.79533     383.5299    34030          414 
  977000    286.78761   -67.615895    378.65444    34056          440 
  978000    289.05133   -58.226868    349.06185    34022          406 
  979000    288.54399   -52.447208    350.29395    34024          408 
  980000     300.5404   -58.285097    367.38566    34026          410 
  981000    294.52749   -54.703874    362.37086    34029          413 
  982000    299.77601   -53.673231    347.23154    34005          389 
  983000    276.77078   -59.823979    353.75919    34045          429 
  984000    321.66303   -55.185101    420.82765    34053          437 
  985000    302.23792   -42.972411    351.89777    34006          390 
  986000    296.74248   -46.001583    389.23324    34055          439 
  987000    277.08825   -58.741581    358.63899    34051          435 
  988000     277.7032   -63.269224    365.41844    34058          442 
  989000    280.60094   -59.125787    339.14613    34022          406 
  990000    279.57979    -57.44321    331.17749    34014          398 
  991000    296.84018   -55.874139    347.12027    34009          393 
  992000    312.89254   -54.558234    394.11655    34037          421 
  993000    306.08703   -63.016672    400.67491    34055          439 
  994000    283.82944   -54.546817    349.69592    34029          413 
  995000    284.90241   -58.103676    353.00758    34032          416 
  996000    277.74366   -58.124022    331.57414    34016          400 
  997000    274.87827   -59.667581    329.16572    34018          402 
  998000    308.48866   -47.074429    367.49851    34016          400 
  999000    296.90505     -58.1257    343.00277    34003          387 
 1000000      275.854   -50.819011    328.28393    34016          400 
Loop time of 9291.97 on 5 procs for 1000000 steps with 34016 atoms

Performance: 9.298 ns/day, 2.581 hours/ns, 107.620 timesteps/s
99.6% CPU use with 5 MPI tasks x no OpenMP threads

MPI task timing breakdown:
Section |  min time  |  avg time  |  max time  |%varavg| %total
---------------------------------------------------------------
Pair    | 289.76     | 295.26     | 301.61     |  23.8 |  3.18
Neigh   | 5641.7     | 5801.4     | 6081.6     | 194.6 | 62.43
Comm    | 686.04     | 883.09     | 1119.7     | 550.7 |  9.50
Output  | 0.14336    | 0.14951    | 0.17359    |   3.1 |  0.00
Modify  | 2127.2     | 2215       | 2343       | 212.3 | 23.84
Other   |            | 97.06      |            |       |  1.04

Nlocal:    6803.2 ave 6863 max 6693 min
Histogram: 1 0 0 0 0 1 0 1 0 2
Nghost:    17326.8 ave 17581 max 17134 min
Histogram: 1 1 1 0 0 0 0 0 1 1
Neighs:    11176.4 ave 14646 max 8189 min
Histogram: 1 0 1 0 1 1 0 0 0 1

Total # of neighbors = 55882
Ave neighs/atom = 1.64282
Neighbor list builds = 47272
Dangerous builds = 0

compute		pe ggcmc pe/atom
variable	      x atom c_pe

compute         layers ggcmc chunk/atom bin/1d z lower 0.1 units box bound z -45 45

fix		4 ggcmc ave/chunk 10 100 1000 layers v_x file profile.density
run               3000000
Per MPI rank memory allocation (min/avg/max) = 6.989 | 7.003 | 7.018 Mbytes
Step c_mtem PotEng KinEng Atoms v_nH2 
 1000000      275.854   -50.819011    328.28393    34016          400 
 1001000    299.39083   -61.704904    363.61853    34024          408 
 1002000    288.61378   -54.949105     364.7337    34040          424 
 1003000     307.3306   -56.739258    363.20131    34012          396 
 1004000    307.33589   -60.751419    382.42359    34034          418 
 1005000    308.81692   -57.936872    427.27599    34080          464 
 1006000    276.82565   -62.987848    349.40818    34040          424 
 1007000    290.98906   -58.515259    356.67573    34028          412 
 1008000    296.90416   -63.984284    374.00721    34039          423 
 1009000      291.175   -71.006407    361.19693    34033          417 
 1010000     286.3916   -72.738168    391.61356    34073          457 
 1011000    305.29267   -67.696154    396.10631    34052          436 
 1012000    295.64526   -62.734558    405.11262    34076          460 
 1013000    295.28428   -60.751809    365.38838    34032          416 
 1014000    294.50721   -57.279816     336.2807    34000          384 
 1015000     284.8294   -57.363101    348.69235    34026          410 
 1016000    280.67941   -59.626971    358.01707    34044          428 
 1017000    309.97007    -58.94545    394.73466    34044          428 
 1018000    297.02204    -57.19474    385.06754    34050          434 
 1019000    300.51684   -54.625359    388.56275    34050          434 
 1020000    308.70184   -54.466151    373.80759    34023          407 
 1021000    280.76767   -61.974735    347.66658    34032          416 
 1022000    303.34432   -54.358768    372.07551    34027          411 
 1023000    291.78747   -49.878885    387.18737    34062          446 
 1024000    293.51206   -52.133377    364.21742    34033          417 
 1025000     280.9246   -57.015108    324.13219    34004          388 
 1026000    294.07127   -54.355946    366.00296    34033          417 
 1027000    294.15822   -55.795459    383.34272    34053          437 
 1028000    313.27575   -57.354767    380.74589    34024          408 
 1029000    303.66945   -52.254157    360.18037    34014          398 
 1030000    279.95406   -57.243901    352.56963    34038          422 
 1031000    291.81093   -49.801042    352.52895    34021          405 
 1032000    292.52757   -52.618958    353.55561    34022          406 
 1033000    289.13811    -56.49189    342.54004    34014          398 
 1034000    298.55163   -55.441359    359.58479    34021          405 
 1035000    296.92875   -60.477709    378.33559    34044          428 
 1036000    301.66583   -58.322729    377.73659    34037          421 
 1037000    292.31443   -61.753218    353.59695    34022          406 
 1038000    292.00789   -52.958814    360.75304    34030          414 
 1039000    290.59571   -52.591181    359.37389    34031          415 
 1040000    306.67814   -46.883832    363.39051    34014          398 
 1041000    305.04425   -57.622308     373.2596    34026          410 
 1042000    287.61063   -51.712276    340.38537    34012          396 
 1043000    291.91088   -53.723052    377.13936    34049          433 
 1044000    304.60156   -51.696547    365.89642    34019          403 
 1045000    299.89391   -49.061196    379.60885    34041          425 
 1046000    300.97448   -47.470397    349.57739    34006          390 
 1047000    282.47826   -47.573169    349.21236    34028          412 
 1048000    295.84281   -54.832549    402.36431    34068          452 
 1049000    291.07414   -52.586174    348.27027    34018          402 
 1050000     286.7021    -49.16641    335.88509    34010          394 
 1051000    297.42419   -49.983508    339.58546    33997          381 
 1052000    297.90681   -44.054644    371.22004    34035          419 
 1053000    292.92842   -48.143768    366.58141    34035          419 
 1054000    282.60039   -50.818422      344.693    34025          409 
 1055000    309.72927   -67.755516    382.96266    34031          415 
 1056000     295.3431   -54.379538    356.17657    34021          405 
 1057000    310.57492   -53.406929    375.19394    34021          405 
 1058000     305.4223   -53.601177     353.6359    34005          389 
 1059000    286.94956   -54.569596    341.30865    34016          400 
 1060000    291.73321   -51.321945    356.70027    34027          411 
 1061000    286.40223   -49.928366    356.06022    34034          418 
 1062000    315.80428   -56.980965     374.9234    34015          399 
 1063000    277.70319   -65.685702    347.26946    34036          420 
 1064000    289.34493   -64.232747    362.90705    34035          419 
 1065000    276.34731   -61.250052    345.19298    34035          419 
 1066000    273.23939   -57.184629    317.07325    34006          390 
 1067000    292.20368   -61.113769    354.03752    34023          407 
 1068000    288.93169   -53.604137    367.58156    34043          427 
 1069000    313.06119   -62.474776    401.05191    34046          430 
 1070000    295.21849   -62.864161    404.32164    34076          460 
 1071000    273.95148    -61.48122    327.57728    34018          402 
 1072000    298.70711   -57.440976    372.43329    34032          416 
 1073000    293.79544   -55.118673    357.10477    34024          408 
 1074000    282.16432   -56.959158    334.42965    34013          397 
 1075000     324.2516   -64.396827    417.47276    34047          431 
 1076000    293.70885   -57.615135    371.61618    34041          425 
 1077000    295.94974   -54.660435    386.14169    34053          437 
 1078000    297.04889   -65.181374    370.68993    34035          419 
 1079000    307.01398   -62.776311    391.44696    34043          427 
 1080000    296.81262   -65.166133    398.26282    34066          450 
 1081000    297.41483   -69.122231    379.18965    34044          428 
 1082000    311.39275   -60.181968    383.37239    34030          414 
 1083000    272.07885   -60.923831    331.49101    34025          409 
 1084000    300.12522   -46.141115     380.7272    34040          424 
 1085000    293.20655   -57.812521    346.28556    34013          397 
 1086000     305.6041   -55.665825    372.71178    34026          410 
 1087000     292.5601   -57.059285    377.01969    34047          431 
 1088000    315.00558   -63.911613    405.74609    34049          433 
 1089000    282.33673   -56.696979    358.22631    34041          425 
 1090000    287.29774   -52.022163    365.89409    34044          428 
 1091000    275.39652   -64.752713    372.59879    34069          453 
 1092000    305.36826   -67.009056    396.44232    34052          436 
 1093000    294.20345   -62.253631    362.33494    34029          413 
 1094000    303.68527   -60.256779    359.60346    34014          398 
 1095000    276.78576   -66.058685    359.53425    34052          436 
 1096000    279.16266   -66.581496    380.74103    34074          458 
 1097000    303.00581   -79.287176    396.27553    34054          438 
 1098000    298.40746   -67.772678    407.80432    34075          459 
 1099000    315.66986   -63.494214    396.70449    34038          422 
 1100000    286.06279    -59.17869    336.00156    34010          394 
 1101000    282.65469   -58.077191    356.99986    34039          423 
 1102000    294.57505   -56.349166    375.28251    34044          428 
 1103000    282.86632   -68.511712    385.74834    34072          456 
 1104000     304.9649   -65.835664    380.25669    34033          417 
 1105000    296.20994   -56.599815    386.47963    34053          437 
 1106000    268.21443   -66.265982    358.63854    34064          448 
 1107000    302.74688   -60.306125    373.27311    34029          413 
 1108000    290.13102   -53.280348     359.5547    34032          416 
 1109000    289.75402   -63.566494    352.81159    34025          409 
 1110000    296.12586   -56.619662    371.06388    34037          421 
 1111000    285.10922   -57.849756    359.11959    34039          423 
 1112000    302.17459   -56.952849    377.43451    34036          420 
 1113000    287.56903   -57.371197    359.29495    34034          418 
 1114000    291.69036   -57.815049     365.7465    34037          421 
 1115000    307.15217   -61.416857    384.12635    34035          419 
 1116000     313.7785   -56.458239    388.20116    34032          416 
 1117000    306.88313   -59.183666    387.48503    34040          424 
 1118000    308.23286   -58.155887    380.36142    34030          414 
 1119000    288.65256   -63.841751    388.09855    34066          450 
 1120000    289.75515   -56.384336    380.96782    34057          441 
 1121000    292.07769   -53.229198    359.97395    34029          413 
 1122000    270.18859   -61.496748    341.86582    34041          425 
 1123000    282.82301   -57.723101    342.23237    34021          405 
 1124000    312.88747   -61.152852    365.21965    34008          392 
 1125000    300.82709   -53.728408    366.19653    34025          409 
 1126000    303.51303   -62.632708    396.00019    34054          438 
 1127000     308.9565   -74.530569    390.44244    34038          422 
 1128000    281.96884   -61.506755    361.96191    34046          430 
 1129000    289.37442   -58.065844    361.15798    34034          418 
 1130000    286.76239   -58.131387    358.79538    34036          420 
 1131000     305.9301   -60.060877    407.09726    34062          446 
 1132000    293.46112   -55.293251    370.21286    34040          424 
 1133000    298.83022   -62.805241    397.35844    34060          444 
 1134000    273.47811   -62.339178    354.95895    34052          436 
 1135000    283.57158    -64.23488    357.45516    34038          422 
 1136000    304.43694   -66.168928    385.43429    34040          424 
 1137000    302.17542   -59.052963    393.48696    34053          437 
 1138000    294.20157   -66.334369    362.00134    34029          413 
 1139000    290.29679   -67.240361     376.4494    34052          436 
 1140000    293.57323   -63.568392    408.09763    34083          467 
 1141000    303.46478   -65.062265    383.34845    34040          424 
 1142000    294.48618   -63.076718    353.49158    34019          403 
 1143000    280.04229   -60.922028     336.9082    34020          404 
 1144000    308.91347   -59.985129    366.57675    34015          399 
 1145000    275.16655   -60.012481    327.12575    34015          399 
 1146000    308.21048   -50.528804    345.24048    33989          373 
 1147000    288.47899   -57.200081    341.72607    34014          398 
 1148000    287.73636   -53.929411    362.62886    34039          423 
 1149000    282.52852   -58.809583    370.47631    34056          440 
 1150000    279.50891   -63.883198    362.05612    34051          435 
 1151000    274.03526   -55.127904    355.07631    34051          435 
 1152000    300.55442   -65.854758    367.13463    34026          410 
 1153000    295.69593   -55.062828    331.79603    33993          377 
 1154000    286.84919   -60.811309    354.90382    34030          414 
 1155000    298.84224   -64.478908    380.40253    34043          427 
 1156000    284.21045   -59.454861     353.9092    34034          418 
 1157000    267.02175   -67.005692    360.71701    34068          452 
 1158000    308.58124   -62.388532    384.04145    34034          418 
 1159000    280.46151    -61.55016    368.47574    34056          440 
 1160000     277.2668   -66.924437    348.92033    34039          423 
 1161000    280.16029   -65.904183    360.38745    34047          431 
 1162000    301.34712   -61.274995    377.37864    34034          418 
 1163000    295.08437   -61.743863    357.26711    34021          405 
 1164000    291.73967   -64.902659    348.99099    34018          402 
 1165000    307.02202   -64.277662    371.64748    34023          407 
 1166000    299.10356   -55.157032     384.8001    34048          432 
 1167000     285.2629   -55.161542    376.11807    34059          443 
 1168000    306.48192   -63.091662    390.52744    34043          427 
 1169000    320.51593     -63.8401    411.59857    34047          431 
 1170000    285.74691    -65.25719    366.44937    34047          431 
 1171000    280.01118    -59.89457    358.01841    34045          429 
 1172000     291.6448   -58.401314    398.03356    34074          458 
 1173000    307.79308   -60.451486    387.21549    34038          422 
 1174000    279.61901   -64.189385    364.33337    34054          438 
 1175000    294.27754   -61.595464    362.04057    34029          413 
 1176000    296.56174   -55.390006    356.21627    34019          403 
 1177000    259.87474   -52.401463    309.05597    34014          398 
 1178000    304.11692    -60.21124    350.24544    34002          386 
 1179000    278.74911   -58.938704    326.30604    34009          393 
 1180000     302.9163   -63.029161    368.95028    34023          407 
 1181000     276.5324   -58.739767     332.4796    34019          403 
 1182000     307.9342   -63.945048    379.42842    34030          414 
 1183000    285.31951   -62.372809    347.56052    34025          409 
 1184000    303.42725   -61.295962     397.1756    34056          440 
 1185000    299.40011   -55.297403    356.83539    34016          400 
 1186000    291.28273   -51.612062    356.39812    34027          411 
 1187000    279.13773   -55.703086    346.99994    34030          414 
 1188000    306.62013    -56.29959    378.47849    34031          415 
 1189000    302.90025   -55.296867    391.66334    34049          433 
 1190000    286.48902   -62.305399    377.79461    34058          442 
 1191000    288.56063   -59.614987    347.81955    34021          405 
 1192000    282.06281     -60.2536    357.48384    34042          426 
 1193000     313.6834   -57.006759    382.88048    34024          408 
 1194000    291.66199   -62.570427    362.29497    34031          415 
 1195000    292.32342   -48.738701    344.18767    34009          393 
 1196000    288.75402   -54.723134    360.42558    34035          419 
 1197000    300.06286   -55.920112    363.35125    34023          407 
 1198000    289.44231    -59.63187    338.20493    34008          392 
 1199000    290.86805   -53.384397    370.05558    34043          427 
 1200000    281.06282    -53.91357    352.34394    34037          421 
 1201000     278.9897   -59.845104    337.38503    34021          405 
 1202000    280.05211   -56.746206     330.6594    34013          397 
 1203000    294.24875   -59.712978    353.95727    34020          404 
 1204000    292.19846   -58.334837    371.08154    34042          426 
 1205000    294.68608   -66.185039    365.49272    34033          417 
 1206000    298.14477   -64.277799    384.89406    34050          434 
 1207000    306.34963   -68.636654    408.62465    34064          448 
 1208000    289.60211   -67.125666    382.03455    34059          443 
 1209000    305.38535   -62.560103    413.44671    34071          455 
 1210000    285.42276   -64.826954    369.22145    34050          434 
 1211000    311.85173   -57.374827    367.38158    34012          396 
 1212000    301.09687   -54.877161    375.85722    34031          415 
 1213000    303.43547   -50.977619    369.45057    34025          409 
 1214000    290.19656   -57.967993    366.97988    34039          423 
 1215000    300.28308   -49.446201    359.58093    34018          402 
 1216000    280.01061   -55.760563    335.97992    34018          402 
 1217000    285.50808   -50.321204    327.77695    34001          385 
 1218000    285.03261   -54.517666     331.8182    34007          391 
 1219000    305.26799   -52.280612    380.63529    34035          419 
 1220000    274.98843   -54.362316    310.07616    33995          379 
 1221000    299.92434   -57.953575    341.12739    33998          382 
 1222000    280.07782    -61.33862    335.70253    34018          402 
 1223000    290.13489   -51.399444    355.61318    34027          411 
 1224000    291.12118   -57.365834     349.7571    34019          403 
 1225000    296.13061   -56.359989    351.43248    34014          398 
 1226000    292.46969   -60.161513    343.08407    34010          394 
 1227000    289.35263    -50.79806     320.9478    33988          372 
 1228000    312.18309   -58.648643    367.23306    34011          395 
 1229000    291.25231   -59.051363    360.66517    34032          416 
 1230000     300.6932   -58.536868    366.45176    34024          408 
 1231000     277.1565   -53.095682    360.41287    34051          435 
 1232000     300.7066   -55.947485    370.60194    34028          412 
 1233000    304.69575   -61.436676    389.90113    34046          430 
 1234000    271.74667   -51.727826    340.05002    34035          419 
 1235000     296.7773   -58.065382    390.74198    34057          441 
 1236000    306.36868   -49.830353    388.48623    34042          426 
 1237000    299.36145   -58.011952    383.43059    34045          429 
 1238000    308.01629   -48.108219     379.8842    34029          413 
 1239000    290.70484   -55.487254    369.63491    34042          426 
 1240000    298.16174    -52.45898    351.75206    34012          396 
 1241000    283.66301   -47.911438    329.68298    34006          390 
 1242000    289.67375   -51.536786    341.39632    34011          395 
 1243000    279.78563   -48.095227    351.38589    34038          422 
 1244000     291.4938   -51.892648    352.32319    34022          406 
 1245000    292.98984   -53.418747    370.23614    34040          424 
 1246000    295.96527   -55.847032    364.16082    34028          412 
 1247000    285.66023   -58.604287     362.7496    34042          426 
 1248000    291.72745   -68.258977     402.5228    34079          463 
 1249000    278.97082   -53.369884    373.26235    34065          449 
 1250000    272.63359   -47.231235    320.37774    34009          393 
 1251000    295.42963   -57.079376    382.72529    34051          435 
 1252000    298.05358   -57.026744     377.0241    34038          422 
 1253000      280.846   -51.238377    343.34487    34027          411 
 1254000    306.80871   -53.453679    360.31926    34010          394 
 1255000     313.5793   -60.907398    402.38031    34047          431 
 1256000    282.09152    -48.43326    352.72677    34035          419 
 1257000    297.71533   -44.964188    364.76987    34025          409 
 1258000    297.42415   -47.873145    372.22184    34036          420 
 1259000    296.01714   -51.912129     366.0045    34031          415 
 1260000     294.5033   -47.722074    366.08788    34033          417 
 1261000     275.9013   -55.368992     357.8844    34051          435 
 1262000     306.5157   -53.373021    346.51778    33995          379 
 1263000    311.30786   -49.903326    394.92557    34042          426 
 1264000    278.67741   -53.936354    365.74024    34057          441 
 1265000    302.70559   -55.443706    380.93272    34038          422 
 1266000    290.70693    -55.63976    345.40467    34014          398 
 1267000    302.55264   -47.898416    342.25825    33995          379 
 1268000    280.63893   -50.822275    337.62436    34020          404 
 1269000    308.21659   -50.242647    371.61902    34021          405 
 1270000    298.55706   -47.408342    375.10753    34037          421 
 1271000    289.66886   -51.697212    340.62788    34009          393 
 1272000    299.72909   -50.664996    373.06181    34034          418 
 1273000    285.56411   -45.848069    357.99373    34037          421 
 1274000    303.11913   -40.473962    347.36064    34001          385 
 1275000    284.79409   -47.175856    327.14995    34000          384 
 1276000    276.22567   -43.035396    310.39806    33993          377 
 1277000    293.70109   -51.332562    356.98325    34024          408 
 1278000    292.83242   -56.058051    339.19046    34005          389 
 1279000    272.61802   -51.624276    322.06627    34012          396 
 1280000    277.20763   -55.014118    348.62595    34037          421 
 1281000     303.7475   -55.335765    371.72382    34026          410 
 1282000    288.25242   -55.334805    355.83642    34030          414 
 1283000    298.48152   -60.727346    383.57847    34048          432 
 1284000    291.68316   -55.833936    355.47689    34024          408 
 1285000    284.27034   -57.125728    348.53219    34028          412 
 1286000    315.13651   -51.531225    389.15134    34031          415 
 1287000    286.13055    -45.32273    343.77667    34018          402 
 1288000    311.92096    -50.46847    363.63878    34007          391 
 1289000    273.96064   -45.681137     310.1978    33996          380 
 1290000    293.09296    -50.57697    343.00652    34008          392 
 1291000     294.1537   -55.070408    355.26437    34022          406 
 1292000    290.44345   -53.106374    369.28994    34042          426 
 1293000    298.55987   -53.679351    372.03928    34034          418 
 1294000    283.43324   -50.808141    357.33738    34039          423 
 1295000     302.3896   -44.118142    376.45496    34034          418 
 1296000    305.05283   -52.210806    376.07081    34030          414 
 1297000    299.80194   -44.203731    366.05618    34025          409 
 1298000    278.13206    -51.80212    348.11346    34035          419 
 1299000    282.63201   -49.348092    333.83705    34013          397 
 1300000    317.26552   -55.381201    380.43268    34016          400 
 1301000     269.6226   -57.095332    335.42723    34034          418 
 1302000    288.15192   -58.904321    391.89331    34073          457 
 1303000    295.92672   -61.399808    342.55443    34005          389 
 1304000    307.97505   -55.085735    393.03278    34042          426 
 1305000    296.26784   -62.791107    337.47425    33999          383 
 1306000    303.92071   -53.765001    357.40986    34011          395 
 1307000    280.23827   -54.271861    356.72191    34043          427 
 1308000    291.80529     -53.0787    351.46824    34020          404 
 1309000    307.96728   -54.405791    371.16617    34019          403 
 1310000    298.60433   -61.222708    387.67352    34052          436 
 1311000    285.86361   -60.914887    361.37671    34041          425 
 1312000    296.25942   -55.396002    380.54489    34047          431 
 1313000     292.4314   -55.910041    356.33796    34024          408 
 1314000    291.47811   -51.928842    339.39379    34005          389 
 1315000    275.03059   -58.201731    313.84412    33999          383 
 1316000    297.61641   -56.601907    361.62374    34024          408 
 1317000    288.04824   -56.939438     364.4483    34040          424 
 1318000    317.80464   -62.476841    406.59148    34045          429 
 1319000    279.66858   -58.429084    346.80272    34032          416 
 1320000    319.85816   -51.745991    394.23237    34030          414 
 1321000    300.96108   -50.664749    352.95408    34008          392 
 1322000    306.17017   -51.223816    374.83178    34027          411 
 1323000    288.10354   -50.653122    333.61925    34004          388 
 1324000    296.53874   -49.122889    359.36001    34023          407 
 1325000    304.83999    -47.18907    355.99582    34008          392 
 1326000     294.4207   -55.122917    362.60398    34030          414 
 1327000    310.27765   -55.688423    379.37557    34027          411 
 1328000    282.97727    -54.87705    340.23517    34019          403 
 1329000    282.32882   -49.703453    332.71246    34012          396 
 1330000    289.43952   -46.495991     359.5252    34032          416 
 1331000    315.51657   -54.652428    384.97019    34026          410 
 1332000    285.51112   -54.248703    334.59783    34010          394 
 1333000    299.23009   -54.377555    382.44766    34045          429 
 1334000    288.72697   -49.827282    352.08733    34025          409 
 1335000    297.32606   -47.181385    374.73013    34039          423 
 1336000    296.64258   -44.923592    306.83315    33963          347 
 1337000    257.81638   -44.774311    284.48046    33987          371 
 1338000     298.6497   -52.094127    338.38589    33996          380 
 1339000    288.32589   -53.960285    361.52951    34036          420 
 1340000    270.50568    -47.65833    326.66252    34021          405 
 1341000    303.27445   -50.794212    353.50045    34006          390 
 1342000    302.40307   -52.781967    395.11284    34053          437 
 1343000    272.51352    -52.25241    349.69328    34047          431 
 1344000    307.17681   -63.401408    420.75063    34076          460 
 1345000    293.30195    -50.23226      344.603    34011          395 
 1346000    278.82763   -46.359882    305.91447    33985          369 
 1347000    291.07078   -51.474825    360.57365    34032          416 
 1348000    281.43242   -50.590549    371.78235    34059          443 
 1349000    302.80299   -51.671797    371.95126    34029          413 
 1350000    281.59102   -61.578619    339.82584    34021          405 
 1351000    291.22072   -57.229933    365.80503    34037          421 
 1352000    287.05345   -52.849434    367.87985    34046          430 
 1353000    311.82631   -55.821277    388.71235    34034          418 
 1354000    284.21106   -58.921457    381.15884    34066          450 
 1355000    303.40904   -64.122991    384.78628    34040          424 
 1356000    295.98331   -54.169718    367.03784    34032          416 
 1357000    294.66443   -56.398534    384.91262    34055          439 
 1358000    316.57673   -58.859164    423.59438    34065          449 
 1359000    298.64109   -46.973633    365.42432    34026          410 
 1360000    295.12268   -57.051811    392.64278    34063          447 
 1361000    281.06567   -56.044787    354.46383    34039          423 
 1362000    281.26491   -58.746765    345.33006    34028          412 
 1363000    281.81082   -61.607288    356.19256    34041          425 
 1364000    271.02151     -59.3054    349.30528    34046          430 
 1365000    307.84736   -51.343763    351.66958    34000          384 
 1366000    302.15321   -55.720552    340.78506    33994          378 
 1367000    293.07169   -52.986693    341.95067    34007          391 
 1368000    264.14066   -57.815558    341.08146    34050          434 
 1369000    298.52396   -59.166492    339.11228    33998          382 
 1370000    293.40068   -62.866674    379.78968    34051          435 
 1371000    294.40319   -70.424112    373.62014    34042          426 
 1372000    292.00456   -61.661312    371.74869    34044          428 
 1373000    290.85259    -59.55481    365.32225    34038          422 
 1374000       293.43   -63.209635    402.16999    34076          460 
 1375000    298.33685    -63.91114    365.25185    34027          411 
 1376000    274.85856   -52.179861    335.50692    34026          410 
 1377000    287.33131   -53.682286    343.72941    34017          401 
 1378000    306.00918   -53.793296    369.06693    34021          405 
 1379000    271.47834   -55.301122    323.42701    34016          400 
 1380000     298.3648   -62.997245    376.30477    34039          423 
 1381000    291.11184   -53.550456    382.21716    34057          441 
 1382000    287.88586   -70.434601    351.55445    34025          409 
 1383000    310.86841   -68.007089    419.66078    34068          452 
 1384000    297.53126   -64.659935    428.44488    34099          483 
 1385000    287.80841   -62.352799    382.98011    34063          447 
 1386000    283.92083   -51.531249    337.49325    34014          398 
 1387000    300.14299   -68.029478    384.57861    34046          430 
 1388000    297.16625   -67.393753    390.26331    34056          440 
 1389000    283.61055   -61.518951    355.25979    34035          419 
 1390000    289.57005   -64.039108    342.68979    34012          396 
 1391000    289.95641   -54.679457    365.55384    34039          423 
 1392000    295.33107   -64.574723    364.39587    34029          413 
 1393000    311.82433    -49.49939    369.10714    34014          398 
 1394000    280.46453   -56.639133    332.14125    34014          398 
 1395000    289.23358   -58.283992    349.37691    34022          406 
 1396000    315.28619   -59.453074    391.25342    34033          417 
 1397000    295.17698   -60.488154    360.28083    34026          410 
 1398000    284.87256   -60.181578    395.88028    34083          467 
 1399000    283.16559   -61.182266    375.31815    34060          444 
 1400000    293.08045   -51.427191    356.16466    34024          408 
 1401000    282.64654   -56.142155    344.58165    34025          409 
 1402000    293.56959   -61.315944    377.26507    34047          431 
 1403000     299.1162   -60.095647    381.11162    34044          428 
 1404000     308.3078    -55.78824    397.79359    34049          433 
 1405000    302.84058   -63.203196     387.0572    34045          429 
 1406000    310.09272    -59.93728    361.01334    34007          391 
 1407000    274.35678   -72.400797    350.45777    34045          429 
 1408000    280.67016   -73.823495    385.22331    34077          461 
 1409000    305.37596   -65.540735    391.54241    34045          429 
 1410000    289.91942   -73.701877    348.73372    34020          404 
 1411000    289.27233   -69.885908    392.17825    34067          451 
 1412000    301.12806   -73.592999    403.29566    34066          450 
 1413000    269.68153   -69.596283    339.89169    34039          423 
 1414000    316.22534   -69.843799    405.04068    34044          428 
 1415000    292.92612   -57.474739    352.03753    34019          403 
 1416000    289.69837   -61.109804    369.68776    34043          427 
 1417000    296.79979   -65.019035    399.14092    34068          452 
 1418000    298.14175   -55.216789    374.29276    34038          422 
 1419000    289.72122    -62.86993    379.43052    34055          439 
 1420000    302.20563   -54.493594    387.12003    34046          430 
 1421000    297.61837   -64.117202    381.97642    34046          430 
 1422000    301.44903    -63.37073    413.42489    34077          461 
 1423000    297.91301   -64.323045    396.56658    34060          444 
 1424000    297.09262   -75.650998    381.94528    34047          431 
 1425000     279.9076   -66.020973    362.88699    34050          434 
 1426000    290.07122   -57.164167    364.70813    34038          422 
 1427000     280.0591   -57.062615    344.38247    34027          411 
 1428000    272.53476    -56.38788    325.90857    34018          402 
 1429000    274.03284   -58.038582     318.7828    34006          390 
 1430000    323.77455   -56.633979    413.89572    34045          429 
 1431000    287.62557   -66.966635    353.15068    34028          412 
 1432000    307.89031   -56.042795    405.31578    34058          442 
 1433000    290.24508   -49.211873    339.57073    34009          393 
 1434000    285.57654   -53.974973    376.94462    34059          443 
 1435000    309.78084   -48.864085     373.9619    34021          405 
 1436000    308.55668   -54.313391    398.44963    34050          434 
 1437000    284.00028   -52.858791    350.45125    34030          414 
 1438000    306.79314   -49.483464    376.80507    34028          412 
 1439000    302.89363   -50.885982    365.01296    34021          405 
 1440000    304.09328   -57.396623    389.57771    34042          426 
 1441000    293.47093    -59.75083    357.39145    34025          409 
 1442000    304.34872   -57.580655    366.29867    34020          404 
 1443000    284.32411   -60.732125    352.45747    34032          416 
 1444000    273.04553   -63.111207    332.57658    34025          409 
 1445000    281.69166   -52.130744    338.55843    34020          404 
 1446000    274.52099   -58.811971    336.38405    34028          412 
 1447000    296.44969   -63.572124     374.7941    34041          425 
 1448000    291.09692   -64.431057    365.83389    34037          421 
 1449000    274.03784   -60.669342    316.75614    34004          388 
 1450000    283.84549   -57.413627    382.75748    34069          453 
 1451000    288.20531   -59.252141    379.35905    34058          442 
 1452000    288.31488   -55.662993    352.71768    34026          410 
 1453000    300.22118   -55.500559    349.49291    34007          391 
 1454000    289.99689   -60.286583    379.30084    34055          439 
 1455000    301.86543   -62.205222    380.45322    34039          423 
 1456000    286.39198   -70.129852    374.81393    34056          440 
 1457000    291.66792   -59.983886    365.81512    34037          421 
 1458000    300.90357   -60.395292    375.37756    34035          419 
 1459000    297.56687   -64.625157     388.5281    34053          437 
 1460000    297.03145    -62.80186      349.659    34011          395 
 1461000     283.9536   -57.104115    328.46185    34004          388 
 1462000    290.04874   -60.522442    350.44624    34021          405 
 1463000     279.2094   -51.145877    324.96626    34006          390 
 1464000    286.08601   -49.108102    348.68025    34025          409 
 1465000    302.53783   -51.387145    397.00947    34056          440 
 1466000    296.09745   -58.550958    365.19615    34030          414 
 1467000     282.7909   -50.127785    347.45444    34028          412 
 1468000    307.77678   -51.117334    413.33899    34066          450 
 1469000    302.95087     -50.3638    409.95142    34069          453 
 1470000    284.64303   -57.773649    368.73736    34051          435 
 1471000    290.62944   -60.105136    350.23035    34020          404 
 1472000    286.71306   -56.066242    390.99206    34073          457 
 1473000    292.27096   -66.154901    388.57642    34062          446 
 1474000    289.99343   -63.713627    379.76894    34056          440 
 1475000    302.35406   -64.344083    382.17491    34040          424 
 1476000    282.33087   -73.127072    353.04454    34035          419 
 1477000     281.3885   -59.421181    350.04488    34032          416 
 1478000    282.08512   -68.078904    361.88543    34046          430 
 1479000    301.46167   -56.679715    374.31805    34032          416 
 1480000    288.61688    -62.21748    330.85224    34001          385 
 1481000    276.79304   -61.936489     345.3017    34033          417 
 1482000    305.37421   -54.599596     359.3269    34011          395 
 1483000    287.01237   -56.989689     341.8756    34016          400 
 1484000    291.51244   -49.077228    335.05608    34002          386 
 1485000    313.73011   -52.872591    375.89001    34017          401 
 1486000    294.86302   -52.998609    358.12595    34024          408 
 1487000    301.99149   -58.469261    376.85838    34035          419 
 1488000    271.40139   -51.754923    339.27288    34035          419 
 1489000    287.56416   -58.508506    360.39783    34037          421 
 1490000     290.5125   -48.253035    373.60252    34047          431 
 1491000    307.21699   -58.002685    379.39579    34031          415 
 1492000    305.66016   -49.273914    394.77784    34047          431 
 1493000    292.15327   -65.444526    359.31707    34029          413 
 1494000    305.05608   -55.136885    366.88683    34019          403 
 1495000     280.6536   -57.260212    332.62615    34013          397 
 1496000    291.41451   -63.349318    370.30881    34041          425 
 1497000    281.29796   -47.949244    328.99163    34007          391 
 1498000    286.96654   -48.934919    326.61084    33998          382 
 1499000    293.75876   -56.990289    342.92352    34008          392 
 1500000    312.15338   -59.498061    397.32648    34044          428 
 1501000      280.965   -61.606382    344.14346    34026          410 
 1502000    300.48079   -65.141438    354.32553    34011          395 
 1503000    268.69398   -57.858753    339.02111    34039          423 
 1504000    298.43448   -59.306205    381.00755    34045          429 
 1505000    311.71616   -69.144739    386.66387    34032          416 
 1506000    300.19845   -62.929235    387.56261    34049          433 
 1507000    312.20189   -76.709167    429.76236    34078          462 
 1508000    284.11469   -70.504596    395.65741    34082          466 
 1509000    300.57825   -67.790627    405.54579    34068          452 
 1510000    286.88153   -69.739277    349.83978    34025          409 
 1511000    294.90297    -68.41428    363.50991    34028          412 
 1512000    300.70328   -61.765197    371.93325    34031          415 
 1513000    284.29631    -65.94425    365.44803    34047          431 
 1514000    303.85506   -63.656803    383.43155    34040          424 
 1515000    270.72618    -66.10082    333.63921    34030          414 
 1516000    299.61867     -56.2506    378.91626    34040          424 
 1517000    300.13831   -65.077784     388.7779    34051          435 
 1518000    293.10083   -61.671123    369.28528    34038          422 
 1519000    293.15074   -58.747313    381.79324    34052          436 
 1520000    269.23124   -54.748563    340.58761    34041          425 
 1521000    294.05753    -56.98439    364.22631    34032          416 
 1522000    297.35388   -63.483127    337.88002    33995          379 
 1523000    287.63391   -61.929851     359.3591    34036          420 
 1524000    302.91436   -64.271621    382.17151    34040          424 
 1525000    285.67486   -56.109686    349.23617    34027          411 
 1526000    282.85909   -60.416041    340.95401    34020          404 
 1527000    299.11897   -48.525569    380.65821    34043          427 
 1528000    289.58984   -64.674872    371.45699    34045          429 
 1529000    273.49222   -57.267149    305.11587    33991          375 
 1530000    299.73634   -52.091988    370.65323    34031          415 
 1531000    283.51219   -57.831585     349.5287    34029          413 
 1532000    281.47133   -66.494733    358.78163    34042          426 
 1533000    317.51706   -59.165437    378.72051    34017          401 
 1534000    305.51875   -62.003247    362.59082    34014          398 
 1535000    290.00831   -61.035276    360.64869    34034          418 
 1536000    311.81803   -56.749058    414.54948    34062          446 
 1537000    302.05046   -67.655891    396.83072    34057          441 
 1538000    304.35826   -58.803713     369.8789    34022          406 
 1539000    299.68846   -64.839098    405.29935    34070          454 
 1540000     286.1495   -60.177114    347.58829    34022          406 
 1541000    299.74569    -67.60583    365.82598    34026          410 
 1542000    289.70671    -63.83565    377.66263    34054          438 
 1543000    298.89595   -58.612022     369.0814    34031          415 
 1544000    284.41382   -54.277529    335.53671    34012          396 
 1545000    286.19704    -55.52894    349.69832    34026          410 
 1546000     310.7066   -58.330187     369.0117    34015          399 
 1547000     309.9257   -60.706824     393.6804    34043          427 
 1548000    291.64534   -64.174375     328.7004    33995          379 
 1549000    305.24317   -67.243418    365.88182    34019          403 
 1550000    291.91481   -54.581872     354.4881    34024          408 
 1551000    290.99006   -62.319933    372.91551    34045          429 
 1552000    292.40263   -62.736212     378.4275    34051          435 
 1553000    288.02354   -56.376231    335.72392    34005          389 
 1554000    281.50918   -58.280119    331.08706    34011          395 
 1555000    291.09192    -53.72937    368.97856    34040          424 
 1556000    300.23081   -49.854023    369.92838    34029          413 
 1557000    287.05795   -52.103466    340.74602    34014          398 
 1558000    293.42334   -50.801235    354.92022    34021          405 
 1559000    287.96224   -51.781022    351.53754    34026          410 
 1560000    291.10225   -49.189295    347.50979    34015          399 
 1561000    278.10042   -65.628561    361.13407    34052          436 
 1562000     290.1361   -58.557149    378.94216    34055          439 
 1563000    298.23075   -63.234669     389.0798    34054          438 
 1564000    309.30539   -59.377086    393.14482    34042          426 
 1565000    308.00151    -59.38071     389.5439    34039          423 
 1566000    298.26525   -69.266875    390.45615    34056          440 
 1567000    287.16406   -60.313037    337.04048    34010          394 
 1568000    298.31929   -67.660766    371.37127    34034          418 
 1569000    300.87583   -70.202956    379.25449    34039          423 
 1570000    279.93006   -63.992187     357.1818    34045          429 
 1571000    281.57693   -60.476533    374.09211    34062          446 
 1572000     301.8729   -66.606934    384.59405    34044          428 
 1573000    279.39025   -69.927733     383.1877    34077          461 
 1574000    286.64413    -76.16917    384.18583    34066          450 
 1575000    296.27687   -65.444966    424.76036    34097          481 
 1576000    294.25754   -64.112868    387.16787    34057          441 
 1577000    272.01024   -71.606988     350.0588    34048          432 
 1578000    288.79531   -66.463919    362.08504    34037          421 
 1579000    292.66669    -72.48813    361.39715    34028          412 
 1580000     276.1562   -69.612707    319.08951    34003          387 
 1581000    310.51005   -64.549517    388.48298    34036          420 
 1582000    282.87424   -69.435567    354.29922    34035          419 
 1583000    302.39874   -63.174427    390.77544    34049          433 
 1584000    305.54276   -58.379036    387.33527    34042          426 
 1585000    290.01742   -55.146666     365.9838    34039          423 
 1586000    291.14554   -61.571952    376.01021    34050          434 
 1587000     288.7609   -59.861696    338.29461    34010          394 
 1588000    301.19929   -66.330014    384.38364    34044          428 
 1589000    300.29867   -61.297444    389.79355    34051          435 
 1590000     311.1299    -60.72225    392.05943    34039          423 
 1591000    301.77852   -54.405228    394.52032    34055          439 
 1592000    283.26744   -54.947827    337.09573    34016          400 
 1593000    288.52147   -57.257681     341.8214    34013          397 
 1594000    291.72653   -54.005821     356.7751    34027          411 
 1595000    309.58971   -56.061204    349.64807    33995          379 
 1596000    307.25563    -54.57673    365.04809    34015          399 
 1597000    283.06064   -56.742399    373.19666    34059          443 
 1598000    270.59343   -62.832077    322.12429    34015          399 
 1599000    294.97376   -65.634334    376.51928    34045          429 
 1600000    290.00209   -63.767774     397.1558    34076          460 
 1601000    278.58984   -58.382473    360.18406    34049          433 
 1602000    274.82222   -55.624007    325.46589    34013          397 
 1603000    267.63879   -61.639002     329.6398    34028          412 
 1604000    297.41074   -61.048438    386.53824    34053          437 
 1605000    285.51972   -62.884907    375.23553    34057          441 
 1606000    288.10355   -61.046958    355.66961    34030          414 
 1607000    293.62459   -55.099172    346.66664    34012          396 
 1608000    273.74025     -54.1668    316.47581    34004          388 
 1609000    296.34618   -57.574581    363.23426    34027          411 
 1610000    270.03119   -59.097243    338.65919    34037          421 
 1611000    278.81672   -56.401037    375.57139    34068          452 
 1612000    289.32666   -52.891994    381.71007    34059          443 
 1613000    285.98486   -54.673375    357.05814    34035          419 
 1614000    305.79294   -69.271606    401.30268    34056          440 
 1615000    285.19298   -60.731298    370.50402    34052          436 
 1616000    321.88558   -65.693201    410.41475    34044          428 
 1617000    302.71743    -66.50544    381.62716    34039          423 
 1618000    299.44004   -70.712715    366.44646    34027          411 
 1619000    302.73579   -64.137633    383.76294    34042          426 
 1620000    301.71919   -58.535946    381.11606    34040          424 
 1621000    287.36483   -49.452093    337.42145    34010          394 
 1622000    281.40282   -60.536024    330.80663    34010          394 
 1623000     274.6292   -67.197658    338.01829    34028          412 
 1624000    292.94084   -57.935395    381.76458    34054          438 
 1625000    296.19573    -68.17815    368.60857    34034          418 
 1626000    283.88341   -65.484229    336.34875    34014          398 
 1627000    309.03583   -66.898166    369.00286    34016          400 
 1628000    290.58565   -67.814854    349.19968    34020          404 
 1629000    289.94744   -67.778408    345.93484    34015          399 
 1630000    300.98731   -66.747168    387.89641    34049          433 
 1631000    290.07435   -59.498373    351.64489    34023          407 
 1632000      297.163   -58.654448     365.1431    34028          412 
 1633000    296.77217   -62.816806    383.47866    34050          434 
 1634000    291.94775   -62.381359     361.9137    34032          416 
 1635000    285.90461   -68.011927    370.76907    34052          436 
 1636000    280.82794   -65.194966    363.26745    34050          434 
 1637000    292.12618   -56.537937    338.70109    34005          389 
 1638000     303.2237   -57.410581    373.14472    34029          413 
 1639000    312.29126   -56.694091    359.54726    34003          387 
 1640000    295.24576   -52.830856    348.80008    34013          397 
 1641000    298.14737   -58.113922    368.33375    34031          415 
 1642000    304.14649   -57.546598    366.95825    34020          404 
 1643000    290.79748   -71.592237    376.84025    34051          435 
 1644000    316.08257   -64.546376    388.02548    34027          411 
 1645000     300.8921   -67.912558     377.0062    34036          420 
 1646000    275.20192   -73.715758    371.92672    34070          454 
 1647000    296.82824   -66.328608    400.82519    34070          454 
 1648000    295.74944   -67.119428    396.26636    34066          450 
 1649000     291.3305   -59.778992    357.33856    34028          412 
 1650000    279.62627   -52.827774    342.36549    34027          411 
 1651000    304.42515   -51.613347    366.95888    34021          405 
 1652000    296.27143   -59.292431    373.65126    34039          423 
 1653000    317.84085   -67.618282    438.86538    34079          463 
 1654000    291.19645    -67.63028    375.66409    34049          433 
 1655000    278.37235   -68.598125    344.29599    34031          415 
 1656000    303.22269   -64.172331    384.67763    34042          426 
 1657000    283.43988   -56.917652    361.99817    34045          429 
 1658000    282.10631   -61.317899    335.79447    34016          400 
 1659000    281.82192   -59.278031    330.15932    34009          393 
 1660000    293.00713   -51.526687    351.48551    34019          403 
 1661000    276.07261   -55.236712    358.13765    34052          436 
 1662000    296.06226   -59.850778    369.48687    34034          418 
 1663000    286.27703    -57.78602    366.10649    34045          429 
 1664000    289.62218   -55.158049    371.48265    34047          431 
 1665000    297.82281   -58.191697    377.92925    34042          426 
 1666000    287.65267   -53.485334    355.43083    34031          415 
 1667000    279.34929   -57.609565    372.33595    34064          448 
 1668000    304.28024   -62.982778    375.64933    34031          415 
 1669000    279.49741       -50.95     343.3232    34029          413 
 1670000    310.03838   -46.316312    363.48139    34009          393 
 1671000    289.87352   -58.867432    356.22925    34028          412 
 1672000    312.57948   -58.934655    380.70663    34025          409 
 1673000    300.95831   -57.545222    371.04761    34029          413 
 1674000    299.63993   -62.409903    373.67008    34035          419 
 1675000    285.25809   -54.447674      333.958    34008          392 
 1676000     279.2927   -51.357306    330.11247    34013          397 
 1677000    290.55587   -62.114239    364.86015    34036          420 
 1678000    293.68203   -51.743254    335.35715    33999          383 
 1679000    288.84776   -60.801764    347.34055    34020          404 
 1680000    289.39862   -63.063376     339.7448    34010          394 
 1681000    308.32014   -68.129375    396.48465    34047          431 
 1682000    286.51968   -59.631108    380.30446    34060          444 
 1683000    294.17897   -64.104655    365.39838    34033          417 
 1684000    292.24865   -67.101428    346.75526    34015          399 
 1685000    303.98516   -65.436716    426.17643    34087          471 
 1686000    291.34873   -58.701891    363.99183    34036          420 
 1687000     275.8923   -52.412798    339.74082    34029          413 
 1688000    283.64099   -60.267501    367.52924    34051          435 
 1689000    301.42034   -49.669916    381.36168    34039          423 
 1690000    293.88847   -58.523673     340.5004    34005          389 
 1691000    288.90151   -49.203697    351.15594    34022          406 
 1692000    287.74215   -48.449116    329.48712    34001          385 
 1693000    285.97863   -45.852719    327.46852    34000          384 
 1694000    283.60254   -54.830364    352.74615    34034          418 
 1695000    289.82226   -53.761975    343.84629    34014          398 
 1696000    296.07383   -50.444385    396.02509    34064          448 
 1697000    295.57823   -58.598013    349.31443    34013          397 
 1698000    291.57427   -64.443091    356.84407    34027          411 
 1699000    294.40609   -59.541099    399.05627    34071          455 
 1700000    284.21641    -65.53621     378.0515    34061          445 
 1701000     275.2133   -57.771298    356.86274    34050          434 
 1702000    298.42296   -57.730507    383.51864    34047          431 
 1703000     283.3766   -60.043094    358.49155    34041          425 
 1704000     313.9274   -60.323401    386.52867    34029          413 
 1705000    298.80546   -61.109954    331.98145    33989          373 
 1706000    288.27377   -50.513898    341.03005    34012          396 
 1707000       311.85    -56.93157    385.14053    34031          415 
 1708000    296.91774   -58.935979    359.21312    34022          406 
 1709000     274.4098   -63.566393    355.14726    34050          434 
 1710000    299.28509   -53.249658    373.10126    34034          418 
 1711000    301.73677   -61.484672    386.32154    34044          428 
 1712000    290.93511   -61.309552    381.34915    34055          439 
 1713000    310.12513   -57.608754    397.69599    34047          431 
 1714000    296.80124    -60.19778    379.16755    34045          429 
 1715000    289.14146   -66.526999    369.00063    34045          429 
 1716000    306.15592   -64.495227    373.69124    34025          409 
 1717000    282.49388   -55.826287    352.00845    34035          419 
 1718000    306.23169   -58.875591    406.23257    34062          446 
 1719000    310.75961    -69.48772    390.33283    34038          422 
 1720000    282.89028   -57.395403    318.06695    33993          377 
 1721000    299.53629   -62.547335    361.55104    34021          405 
 1722000    277.97341   -61.095407     358.8977    34050          434 
 1723000    296.83521    -66.91482    378.90657    34045          429 
 1724000    281.13675   -68.091873     392.5601    34082          466 
 1725000    259.02745   -72.303702    329.41813    34043          427 
 1726000    294.82946   -72.327576    346.58325    34011          395 
 1727000    284.64815   -64.883115    338.29635    34015          399 
 1728000    311.86942   -64.518862    386.02613    34032          416 
 1729000    299.12816   -57.295896    378.47907    34041          425 
 1730000    270.81287   -53.586452    345.94675    34045          429 
 1731000    283.95221   -54.169309    354.36892    34035          419 
 1732000    310.51237    -59.57399    385.66422    34032          416 
 1733000    305.76668   -55.103599    380.41106    34032          416 
 1734000    283.84162    -65.26254    341.37997    34020          404 
 1735000    290.70659   -62.147415    368.37199    34042          426 
 1736000    272.63299   -55.749582     331.9841    34024          408 
 1737000    278.11411   -51.527384    327.57584    34010          394 
 1738000    284.75759   -62.122317    369.28038    34050          434 
 1739000    301.14344   -61.008421    385.23504    34046          430 
 1740000    282.75724   -54.270818    319.50284    33995          379 
 1741000    320.77659   -53.017873    383.28465    34017          401 
 1742000    284.73464   -57.467426    335.24995    34011          395 
 1743000    308.85226   -64.531098    363.69165    34011          395 
 1744000    304.77883   -61.451306    369.88316    34024          408 
 1745000    301.22441   -66.783498    372.75856    34031          415 
 1746000    282.75933   -54.789292    354.33229    34037          421 
 1747000     301.5033   -56.994034    366.81601    34025          409 
 1748000    311.53557   -55.043867    387.62992    34034          418 
 1749000    306.71173    -69.39912    373.32727    34024          408 
 1750000    289.82005   -57.965812    350.77743    34021          405 
 1751000    298.66373   -55.155262    342.56906    34000          384 
 1752000    287.47115   -63.933721     335.0521    34007          391 
 1753000     288.4622   -59.538975    348.03054    34021          405 
 1754000    309.12541   -55.792027    362.84224    34010          394 
 1755000     293.1331   -57.707629    341.76099    34008          392 
 1756000    280.91021   -55.004281    333.09533    34014          398 
 1757000    280.28228   -64.923842    340.62534    34024          408 
 1758000    277.90108   -66.187872    363.01629    34055          439 
 1759000    291.81793   -70.578002    388.90864    34063          447 
 1760000    288.18414   -62.119371    343.96843    34017          401 
 1761000    284.77523   -55.531134    333.70762    34009          393 
 1762000    295.98709   -48.186467    357.66141    34022          406 
 1763000    303.24619   -46.583292    381.51041    34039          423 
 1764000    277.38532   -61.507437      335.829    34021          405 
 1765000    304.61916   -58.319626    366.90183    34019          403 
 1766000    287.90159   -58.105209    332.69788    34004          388 
 1767000    278.43809   -59.742589    366.78608    34057          441 
 1768000    297.28677   -58.492714    367.98375    34032          416 
 1769000     302.9756   -56.685972    367.67378    34024          408 
 1770000    280.22483   -64.976753    353.80049    34040          424 
 1771000    300.48552   -60.217199    374.44001    34035          419 
 1772000    304.31231   -51.491572    366.61393    34020          404 
 1773000    301.97703   -53.836917    377.31845    34036          420 
 1774000     289.9284   -67.672697    367.61559    34041          425 
 1775000    288.72247   -58.798471    401.31031    34082          466 
 1776000    294.13095   -65.315181    383.85569    34054          438 
 1777000    328.12303   -64.137536    435.62575    34062          446 
 1778000    283.11161   -59.127845    340.84643    34019          403 
 1779000    294.77004   -61.736565    361.35212    34028          412 
 1780000    328.58473   -59.357469    374.19661    33999          383 
 1781000    301.40441   -62.771892    380.38519    34038          422 
 1782000    309.61561   -54.577656    367.62258    34014          398 
 1783000      290.525   -58.830391    376.46108    34049          433 
 1784000    276.20448   -58.248941     328.2598    34015          399 
 1785000    295.13441   -68.187145    364.19911    34029          413 
 1786000    276.84529   -55.778207    341.34145    34029          413 
 1787000    281.98975   -56.999843    341.98287    34023          407 
 1788000     285.8224   -60.274228    318.89776    33991          375 
 1789000    299.40573   -60.983457    395.20566    34057          441 
 1790000    293.02261   -64.296342    369.81935    34040          424 
 1791000    285.62596   -64.506975    350.07133    34028          412 
 1792000    282.58648   -65.544736    366.52189    34051          435 
 1793000      313.925   -65.203702    407.38312    34052          436 
 1794000    304.76055   -62.376098    355.44787    34008          392 
 1795000    294.99091   -62.767742    385.54974    34055          439 
 1796000    298.96162   -62.951996    357.74196    34018          402 
 1797000    306.90873   -65.502645    389.56414    34042          426 
 1798000    312.85283   -68.521442    417.35449    34064          448 
 1799000    286.07282   -68.990332    408.14089    34094          478 
 1800000     254.9448   -73.286438     344.0048    34069          453 
 1801000    294.18854   -59.450986    340.10826    34003          387 
 1802000    295.47256    -68.24576    357.43381    34022          406 
 1803000    285.04648   -64.803336    370.84651    34053          437 
 1804000     300.4284   -59.690325     387.1992    34048          432 
 1805000    300.00566   -73.625963    401.06039    34065          449 
 1806000     293.3471    -67.25603    338.08654    34003          387 
 1807000    308.82814   -65.218099    399.11135    34049          433 
 1808000    271.96996   -65.944316    328.87813    34021          405 
 1809000    295.43124   -69.339884    397.18293    34068          452 
 1810000    318.81458   -74.173056    423.10017    34062          446 
 1811000    306.16034   -64.513355    398.93922    34054          438 
 1812000    286.40551   -58.959811     370.5313    34050          434 
 1813000     306.9434   -54.219917    377.18701    34028          412 
 1814000    278.98842   -60.307362    357.07252    34046          430 
 1815000    309.01801   -58.176917    385.14202    34034          418 
 1816000    292.15768   -54.200072    360.06043    34030          414 
 1817000    291.18429   -60.025812    366.44588    34038          422 
 1818000    296.33368   -62.633723    375.83273    34039          423 
 1819000    287.16713   -72.305041    382.88554    34064          448 
 1820000    299.16274   -71.100913    404.86665    34070          454 
 1821000     289.3374   -64.629448    364.50586    34039          423 
 1822000    301.98337   -58.437479    383.04549    34042          426 
 1823000    272.67685   -66.010635    368.96616    34070          454 
 1824000    291.36751   -60.092571    367.93161    34040          424 
 1825000    305.93841   -61.866439    383.52763    34037          421 
 1826000    291.18318    -62.02913    363.00331    34034          418 
 1827000      300.789   -52.951507    358.68699    34016          400 
 1828000    315.91043   -58.076256     368.1064    34007          391 
 1829000    304.38786   -52.958336    401.42929    34059          443 
 1830000    288.71188   -60.146572    355.02738    34029          413 
 1831000    289.05246   -51.156442    354.80054    34028          412 
 1832000    277.53945   -57.750467    336.46596    34022          406 
 1833000    287.86416   -61.084713    353.29516    34028          412 
 1834000    281.77829   -58.965224    340.23187    34021          405 
 1835000    309.84113    -49.26152    355.54389    34001          385 
 1836000    284.56532   -57.297541    352.19642    34032          416 
 1837000    306.20835   -58.261424    388.28793    34042          426 
 1838000    269.66958   -58.818968    319.49702    34014          398 
 1839000    302.98817   -61.447014    390.88804    34049          433 
 1840000    295.63109   -57.148275    359.18891    34024          408 
 1841000    271.07494   -59.314546    346.34824    34045          429 
 1842000    309.10327   -66.580929    372.31109    34018          402 
 1843000    291.00807   -60.402767      365.817    34038          422 
 1844000    288.68185   -56.558908    341.54564    34013          397 
 1845000    308.98565   -58.308329    342.59011    33987          371 
 1846000    293.59332   -60.923516    361.53275    34028          412 
 1847000    279.60585   -56.962376    373.98522    34065          449 
 1848000    293.92583   -64.071161    356.04032    34023          407 
 1849000    290.08258   -64.585465     378.7704    34055          439 
 1850000     300.2466   -61.445642    366.08937    34025          409 
 1851000     282.5149   -71.235491    344.29422    34025          409 
 1852000    330.82988   -64.780868    412.12282    34034          418 
 1853000    277.02584   -65.660607    354.36662    34046          430 
 1854000    291.65984   -67.813776    381.39155    34055          439 
 1855000    295.91082   -57.316694     372.9154    34039          423 
 1856000     312.9233   -64.437107    377.38625    34021          405 
 1857000    287.85204   -69.850293    366.24621    34043          427 
 1858000    298.66548   -66.095749    378.87291    34041          425 
 1859000    302.91742   -65.577429    379.92381    34037          421 
 1860000    285.20078   -55.264705    351.55509    34030          414 
 1861000    302.61596   -56.296718    391.58862    34051          435 
 1862000     293.4486   -54.449153    377.12611    34047          431 
 1863000    304.70292   -62.811963    361.69578    34013          397 
 1864000    309.75091   -57.805676    386.55573    34035          419 
 1865000    295.96469    -55.07322    367.18931    34032          416 
 1866000    288.73654   -63.102447    383.29599    34061          445 
 1867000    312.98932   -60.691818    404.08299    34050          434 
 1868000    298.08369   -60.088189    357.79718    34019          403 
 1869000    301.30173   -57.289277    370.94374    34028          412 
 1870000    267.87343   -58.665606    330.64931    34031          415 
 1871000    307.28591   -50.901922    385.62979    34035          419 
 1872000    299.35036   -48.975626    352.31021    34011          395 
 1873000    282.92242   -47.838314    351.72603    34034          418 
 1874000    293.16485   -58.601895    367.87571    34036          420 
 1875000    291.91896   -52.045947    351.56527    34021          405 
 1876000    285.57693   -46.964833     341.0708    34017          401 
 1877000    318.32141   -50.691641    381.84363    34019          403 
 1878000    283.78774   -56.938017    334.22259    34012          396 
 1879000    293.46358   -52.939677    373.35063    34042          426 
 1880000    279.43295   -51.890216    361.75043    34051          435 
 1881000    282.22023   -58.712755    337.94313    34018          402 
 1882000    308.77716   -53.538139    371.46329    34020          404 
 1883000    295.67317   -49.178401    388.12944    34056          440 
 1884000    291.96447   -54.223918    350.09398    34019          403 
 1885000     320.0602   -45.871294    384.47112    34019          403 
 1886000    276.85589   -49.197757    345.22805    34034          418 
 1887000    293.47232   -57.612496     372.6562    34042          426 
 1888000    310.86444   -64.298939    434.80154    34085          469 
 1889000    296.34425   -58.978936    379.30216    34046          430 
 1890000    317.00791   -57.203565    378.26278    34017          401 
 1891000    303.95672   -61.025884    416.81339    34076          460 
 1892000    297.02462   -56.712409       381.23    34046          430 
 1893000    306.52688    -61.67358    406.21218    34061          445 
 1894000    281.90011   -67.869169     369.2088    34056          440 
 1895000    289.10074   -69.828749    366.51076    34042          426 
 1896000     297.5082   -65.650516    398.41254    34066          450 
 1897000    295.20141   -57.592269    381.12655    34050          434 
 1898000    297.61553   -60.389359    379.13594    34043          427 
 1899000    304.62606   -71.083827      403.544    34060          444 
 1900000    315.57146   -67.666614    407.73249    34049          433 
 1901000    297.65845   -75.293344    382.83229    34048          432 
 1902000    295.54142   -72.541852    381.01339    34049          433 
 1903000     301.6702   -68.272446    378.73428    34037          421 
 1904000    294.94699   -63.598032    345.55024    34009          393 
 1905000    263.29929   -51.887644    320.14887    34022          406 
 1906000    300.29936   -56.534876    352.56967    34010          394 
 1907000    284.74764   -62.207467    377.97021    34060          444 
 1908000    288.47835   -58.770455    349.68098    34023          407 
 1909000    297.60032   -58.009406    329.50616    33988          372 
 1910000    294.76377   -54.698558    349.90174    34015          399 
 1911000    271.32599   -60.570208    328.72739    34022          406 
 1912000    298.07905   -61.820858     375.9829    34040          424 
 1913000    297.04877   -62.400933    365.62407    34029          413 
 1914000     286.6842   -62.258776    346.16018    34018          402 
 1915000    274.85229   -65.761831    347.33675    34040          424 
 1916000    296.90572   -64.784582    372.60328    34038          422 
 1917000    291.52643   -62.625077    403.91153    34080          464 
 1918000    293.70372   -60.803909    382.65301    34054          438 
 1919000    288.72374   -62.433264    382.41421    34061          445 
 1920000    273.33309   -51.527791    336.61281    34029          413 
 1921000    303.27252   -52.717294    363.84613    34018          402 
 1922000    307.43278   -52.635885    370.04446    34020          404 
 1923000    298.01536    -56.67306    365.92995    34028          412 
 1924000    309.44862   -51.136355    363.94194    34011          395 
 1925000    282.80366   -60.802849     355.7691    34035          419 
 1926000     315.6633   -49.050343    388.75449    34029          413 
 1927000    301.73261   -58.779056    414.26928    34076          460 
 1928000    284.49845   -51.484408    384.24235    34069          453 
 1929000    305.45645   -55.459918     363.1792    34015          399 
 1930000    283.59321    -66.07145    339.35646    34018          402 
 1931000    290.18483   -61.482961    376.86428    34051          435 
 1932000    302.79938   -57.860165    419.83869    34082          466 
 1933000    294.79736   -57.331062    374.04969    34041          425 
 1934000      302.158    -46.70403    369.18866    34026          410 
 1935000    285.28495   -60.947315    348.75088    34027          411 
 1936000    275.19213   -65.974935    365.10125    34061          445 
 1937000    303.60082   -67.758069    402.86117    34062          446 
 1938000    293.99962   -62.943725    365.50228    34034          418 
 1939000    285.67161   -60.161385    356.12948    34034          418 
 1940000    293.01477   -68.677154    378.67936    34049          433 
 1941000     296.0144   -70.069494    387.06958    34055          439 
 1942000    282.08325   -75.878895    376.20835    34063          447 
 1943000    293.61984   -67.587521     383.4065    34055          439 
 1944000    293.65128   -67.175473    366.02205    34034          418 
 1945000    280.91381   -71.206058    376.23623    34064          448 
 1946000    286.96695   -71.352539    357.37539    34034          418 
 1947000    293.16457   -71.497606    407.30225    34082          466 
 1948000    277.32268   -62.588169    376.85743    34070          454 
 1949000    315.88469   -57.929601    378.22689    34017          401 
 1950000    289.89603   -58.959503    378.16237    34054          438 
 1951000    298.47804   -55.391888    373.82008    34037          421 
 1952000    299.53263   -65.780325    388.52594    34052          436 
 1953000      287.121   -58.603949    371.01985    34050          434 
 1954000    284.94031   -66.241778    351.14684    34030          414 
 1955000    299.70609     -68.8175    388.33178    34050          434 
 1956000    268.44862   -57.760519    331.54959    34030          414 
 1957000    302.59816     -51.5268    358.50554    34013          397 
 1958000     298.1791   -60.642055    387.10136    34050          434 
 1959000    277.20907    -65.05431    338.30887    34025          409 
 1960000    287.34108   -58.728883    361.09673    34038          422 
 1961000    282.06553   -60.428183    384.38981    34073          457 
 1962000    269.91129   -62.453813    330.16041    34026          410 
 1963000    293.46615   -54.135071    353.89283    34019          403 
 1964000    300.84883   -54.938253    377.86139    34038          422 
 1965000     286.0177   -59.370661    382.39589    34064          448 
 1966000    281.79774   -67.968224    367.34693    34054          438 
 1967000    279.80097   -67.626378    384.45194    34077          461 
 1968000    297.10466   -58.084668    369.58891    34034          418 
 1969000    288.97845   -62.003153    386.31348    34065          449 
 1970000    306.98357   -61.443122    375.34977    34026          410 
 1971000     301.1614   -64.168107     384.4182    34044          428 
 1972000    291.37351     -60.6358    387.04159    34062          446 
 1973000    291.19199   -64.001714    379.39644    34054          438 
 1974000    286.82434   -65.633622    366.33966    34045          429 
 1975000    292.21401   -66.247163    391.24874    34065          449 
 1976000    288.96507   -69.891437    388.11824    34064          448 
 1977000    298.69928    -61.58812    383.52808    34047          431 
 1978000    297.31319   -67.376044    400.97806    34068          452 
 1979000    318.19876   -67.701783    412.53391    34048          432 
 1980000    307.56334   -68.196841    398.15698    34050          434 
 1981000    296.67873   -61.727004    342.07148    34002          386 
 1982000    295.32086   -56.773481    358.07362    34023          407 
 1983000    294.79398   -67.566384    345.97992    34010          394 
 1984000    298.14064   -67.228746    363.77436    34026          410 
 1985000    315.76732   -77.584713    391.79458    34033          417 
 1986000    277.59055   -58.364766    339.18768    34024          408 
 1987000    306.21147   -70.616815    387.91214    34041          425 
 1988000    290.89442   -74.699768    348.60607    34018          402 
 1989000    271.13323   -74.905231    340.33877    34037          421 
 1990000    305.15112   -65.302109     360.9037    34013          397 
 1991000    268.94857   -64.830951    313.00841    34007          391 
 1992000    298.78383   -57.676701    353.80928    34013          397 
 1993000    291.53429    -66.40358    334.46114    34001          385 
 1994000    302.38952   -65.705886     381.0917    34039          423 
 1995000    278.22978   -63.412017    350.62813    34039          423 
 1996000    296.57845   -68.329529    386.56674    34053          437 
 1997000    308.27721    -68.22311    436.94339    34092          476 
 1998000    293.81042   -72.240081    390.62188    34063          447 
 1999000    277.58515   -67.594797    377.75858    34073          457 
 2000000    291.49597    -63.91201    393.04754    34069          453 
 2001000    275.99588    -73.02864    348.18334    34039          423 
 2002000    297.13259   -62.441916    387.86635    34054          438 
 2003000    300.30659    -73.20052    381.68491    34043          427 
 2004000    320.82207   -63.964776    404.52089    34038          422 
 2005000    280.35658    -64.56676     357.9289    34045          429 
 2006000    278.67639   -63.071761    350.55101    34038          422 
 2007000    304.92726   -69.873104    412.37931    34068          452 
 2008000    285.94999   -61.856634    374.57577    34054          438 
 2009000    279.19097   -69.168975     360.0261    34049          433 
 2010000    298.65645   -67.094809    395.03864    34060          444 
 2011000    292.69021   -64.279648    352.73668    34020          404 
 2012000    287.25129   -66.115343    345.20815    34020          404 
 2013000     298.5711   -72.006327    409.51842    34076          460 
 2014000    271.96027   -77.703744    359.06862    34059          443 
 2015000    315.39897    -70.60448    418.87392    34062          446 
 2016000    301.51496   -62.191641    360.34843    34017          401 
 2017000    285.40246   -67.095575     376.1364    34059          443 
 2018000    294.82989   -56.749003    348.17018    34012          396 
 2019000    303.16224   -58.149008    362.90039    34017          401 
 2020000    291.50965   -57.781471    331.76619    33998          382 
 2021000    280.28323   -63.327173    358.91414    34044          428 
 2022000    315.35439   -67.757703    404.04762    34045          429 
 2023000     284.8455   -70.715288    367.43878    34049          433 
 2024000    314.59676   -67.118681    414.67188    34059          443 
 2025000    297.85892   -62.611694     371.6695    34033          417 
 2026000    295.65253   -61.406261    399.25935    34070          454 
 2027000    307.64341   -75.290202    417.54867    34070          454 
 2028000     282.9201   -71.564048    399.11112    34089          473 
 2029000    273.80596   -71.309509    359.16928    34056          440 
 2030000    298.22072   -69.519318    386.95752    34051          435 
 2031000    292.84398   -55.151838    368.10013    34038          422 
 2032000    310.95144   -64.140319    395.32649    34042          426 
 2033000    310.36894   -56.877676    397.27301    34046          430 
 2034000    294.68295    -69.00014    355.70305    34021          405 
 2035000      296.763   -66.950232    368.64341    34033          417 
 2036000    298.22769   -57.493651    338.70679    33998          382 
 2037000    291.04785   -59.747099    343.21252    34012          396 
 2038000    298.42881   -55.942632    368.99225    34030          414 
 2039000    283.05595   -62.839009    349.36323    34029          413 
 2040000    278.61904   -59.054357    323.82162    34006          390 
 2041000    280.57197   -70.830651    338.55604    34021          405 
 2042000    294.58633    -69.98439    383.57971    34052          436 
 2043000    290.80033   -71.887784    368.21473    34039          423 
 2044000    279.65318   -67.060303    361.89033    34049          433 
 2045000     294.5423   -64.854526    388.72307    34059          443 
 2046000    293.66322   -65.868313    365.16356    34033          417 
 2047000    289.90147   -68.162937     343.3484    34014          398 
 2048000    283.19969   -66.826059    390.32338    34079          463 
 2049000     298.0068   -77.203298    417.84879    34087          471 
 2050000     292.6266   -71.340701    378.19844    34050          434 
 2051000    276.14709   -59.466225     342.4552    34032          416 
 2052000    289.13665   -62.117446    385.43104    34063          447 
 2053000     299.6314   -65.177668    386.47898    34049          433 
 2054000    287.97922   -71.618763    388.60082    34069          453 
 2055000    280.70588   -67.171385    338.36676    34020          404 
 2056000    296.12089   -66.946096    390.57593    34059          443 
 2057000     285.4565   -62.666139    363.64498    34043          427 
 2058000    297.05091   -61.133448    388.27929    34054          438 
 2059000    305.10948   -66.009133    405.16678    34062          446 
 2060000    290.05708   -70.943166    379.76609    34055          439 
 2061000    297.58059   -71.683126     372.3736    34036          420 
 2062000    310.95647   -66.047818    376.34411    34021          405 
 2063000    293.99797   -57.713255    374.63502    34042          426 
 2064000     295.1711   -61.430712    375.68628    34041          425 
 2065000    290.20148   -61.792145    372.12648    34045          429 
 2066000    279.64643    -59.79325    340.63762    34025          409 
 2067000    300.65012   -59.308445    373.86423    34034          418 
 2068000    287.56094   -61.471404    342.13565    34015          399 
 2069000    297.48867   -46.342389    348.81249    34008          392 
 2070000    282.71882   -58.479825    354.97361    34037          421 
 2071000    282.73716   -51.488502    328.56596    34006          390 
 2072000    286.42021   -60.691857    323.55763    33994          378 
 2073000    284.29508   -57.615614    343.51468    34021          405 
 2074000    278.39052   -44.022886    321.19744    34003          387 
 2075000    285.81213    -53.95043    328.49471    34001          385 
 2076000    283.11508   -58.140301    338.74579    34018          402 
 2077000    302.47998   -57.977688    361.97907    34018          402 
 2078000    296.58996   -53.208683     362.6382    34025          409 
 2079000    299.43431   -44.803245    335.69216    33993          377 
 2080000    287.08052   -42.453975    315.64029    33985          369 
 2081000    295.06361   -57.086373    347.78662    34011          395 
 2082000    318.28481   -50.531669    361.99969    33997          381 
 2083000    296.06296   -59.853345    336.56545    33998          382 
 2084000    284.54939    -58.58927    382.24086    34065          449 
 2085000    289.09068   -48.850863    338.75302    34008          392 
 2086000    292.53373   -47.875821    331.41961    33996          380 
 2087000    286.73527   -52.432994    361.31095    34039          423 
 2088000     313.3822   -50.299643    412.29337    34058          442 
 2089000    287.45163   -57.913647    378.92946    34059          443 
 2090000    314.88066   -61.793087    422.99501    34067          451 
 2091000    299.96325   -57.287901    381.27407    34043          427 
 2092000    271.63321    -55.44564    349.18264    34047          431 
 2093000     312.7488    -52.96791    389.24282    34034          418 
 2094000    277.55435   -55.221229    315.13678    33997          381 
 2095000    322.74049   -60.395768     384.5507    34016          400 
 2096000    277.13365   -51.619566    345.12999    34034          418 
 2097000    294.91724   -64.449565    378.85229    34046          430 
 2098000    291.80577    -67.88472    361.10616    34031          415 
 2099000    293.53547   -59.868002    374.21322    34044          428 
 2100000    301.73582   -63.300237    397.79682    34059          443 
 2101000    293.90679   -63.278927    373.77632    34043          427 
 2102000     310.1185    -62.47466    401.63374    34050          434 
 2103000    296.01454   -60.190095    384.55572    34052          436 
 2104000    309.90768   -59.450084    385.07872    34033          417 
 2105000    293.33702   -48.988077     332.2826    33995          379 
 2106000     289.4124   -47.797028    333.37546    34003          387 
 2107000    302.79712   -46.290123    376.45459    34034          418 
 2108000    299.52876   -46.691329    375.61475    34037          421 
 2109000     280.5667   -52.241527    329.16574    34010          394 
 2110000    278.90853    -52.35363    358.44111    34048          432 
 2111000    296.26433   -48.736501    384.24248    34051          435 
 2112000     288.4418   -52.301859    341.60301    34012          396 
 2113000    318.91856   -51.989977    379.18307    34014          398 
 2114000    286.85694   -61.696356    368.29401    34047          431 
 2115000    293.72765   -64.739367     385.9738    34057          441 
 2116000    313.80266   -58.188425    378.20956    34019          403 
 2117000    291.38006   -58.480051    340.88951    34009          393 
 2118000    280.10827   -57.413269    354.88645    34041          425 
 2119000    300.45705   -62.202361    363.78168    34022          406 
 2120000    294.62291   -54.546932    377.74446    34047          431 
 2121000    299.07456    -72.05607    375.89884    34038          422 
 2122000    280.58467   -66.624938     386.8174    34079          463 
 2123000    286.55421   -64.547658     378.7373    34060          444 
 2124000    307.33668   -60.539802     380.4341    34031          415 
 2125000     301.5272   -53.189779     360.6299    34017          401 
 2126000    291.77172   -54.746245    357.95915    34028          412 
 2127000    304.17807   -57.250378    379.24911    34034          418 
 2128000    284.26134   -52.573889    357.90609    34039          423 
 2129000     295.1008   -55.158274    359.00084    34024          408 
 2130000    258.02944   -55.009746    316.20833    34027          411 
 2131000    297.74835   -47.439314    345.32163    34005          389 
 2132000    287.06654   -47.749036     319.3931    33989          373 
 2133000     290.1844   -56.385087     351.6302    34023          407 
 2134000     289.5619   -57.569459    355.83658    34028          412 
 2135000    297.31249   -48.132997    345.45623    34006          390 
 2136000    287.60354   -45.352764    326.06638    33997          381 
 2137000     290.3239   -50.270157    352.68676    34024          408 
 2138000    313.11876   -49.462958    377.85066    34021          405 
 2139000    279.75443   -54.788075    357.78444    34045          429 
 2140000    297.60209   -51.867204    360.78516    34022          406 
 2141000    278.33159    -61.28359    345.23799    34032          416 
 2142000    289.21985   -54.039869    340.52342    34011          395 
 2143000    291.20642    -63.66108    358.70639    34028          412 
 2144000    291.69347   -54.231079    351.15245    34020          404 
 2145000    286.44306   -61.148532    365.81911    34045          429 
 2146000    292.81584   -56.064247    349.72134    34017          401 
 2147000    303.63652   -48.791768    366.76548    34021          405 
 2148000    285.58023    -60.05178    364.51301    34044          428 
 2149000    293.13854   -58.911503    341.81584    34008          392 
 2150000    282.18489   -56.448547    338.40124    34018          402 
 2151000    302.48132   -50.158346    350.61107    34005          389 
 2152000    294.41015   -49.251669    331.64033    33993          377 
 2153000    309.61972   -50.865522     389.3961    34038          422 
 2154000    288.84781   -66.532095    414.58154    34096          480 
 2155000    295.21165   -66.994131    372.86603    34039          423 
 2156000    306.49823   -70.638856     409.7124    34063          447 
 2157000      282.863    -65.08282     362.7967    34047          431 
 2158000    281.80874   -71.396963    363.43557    34049          433 
 2159000    300.51424   -72.596024    383.19474    34042          426 
 2160000    299.87888   -67.160566    392.60138    34054          438 
 2161000    302.06745   -61.450042    398.05839    34059          443 
 2162000    269.93703    -57.59911    331.76985    34029          413 
 2163000    299.24644   -55.612243    368.81413    34028          412 
 2164000    298.61693   -63.149625     362.2727    34022          406 
 2165000    300.64771   -54.774034    358.87785    34017          401 
 2166000    283.15978   -54.098546    355.21984    34035          419 
 2167000    300.41835   -53.125017    338.67698    33994          378 
 2168000    286.79125    -59.14782    354.69854    34030          414 
 2169000    287.80081   -46.228883    320.40969    33988          372 
 2170000    305.15034    -51.82679    344.80208    33996          380 
 2171000    316.71384   -58.106982     386.2818    34026          410 
 2172000     315.6826   -58.613354    350.75485    33988          372 
 2173000    281.82345   -55.260773    335.66327    34015          399 
 2174000    279.36566   -44.376124    339.50207    34023          407 
 2175000    277.54675   -53.262117    368.67216    34062          446 
 2176000    280.05885   -54.388631     345.9712    34030          414 
 2177000    296.52143   -59.568651    371.17558    34036          420 
 2178000     292.6641   -59.502758     389.9977    34063          447 
 2179000    272.98482   -62.831758    341.50409    34036          420 
 2180000    294.77009   -71.053966    386.70499    34056          440 
 2181000    315.60519   -59.862717    365.57799    34005          389 
 2182000    296.30253   -58.617536    378.68297    34045          429 
 2183000    296.22829   -63.027036    374.99685    34040          424 
 2184000    284.80631   -59.646309    362.55938    34043          427 
 2185000    291.12546   -66.335993    376.95112    34051          435 
 2186000    297.92186   -70.816706    414.11237    34082          466 
 2187000    304.94499   -73.369856    409.79484    34067          451 
 2188000    271.03374   -72.894306    369.64721    34074          458 
 2189000    285.68353   -71.162399    362.78672    34042          426 
 2190000    298.81733   -72.019063    410.27384    34077          461 
 2191000    303.83242   -59.731251    405.19582    34064          448 
 2192000    296.53358   -58.750663    374.19119    34040          424 
 2193000    301.61254   -49.190899    403.11835    34062          446 
 2194000    289.15169   -60.751008    378.59791    34056          440 
 2195000    320.70228   -63.844825     403.5741    34039          423 
 2196000    280.84197   -60.909243    359.60928    34046          430 
 2197000    281.72793   -59.802291    341.65331    34023          407 
 2198000    278.88198   -62.662982    335.50146    34020          404 
 2199000     301.6934   -68.780283    353.62581    34009          393 
 2200000     291.9965       -66.33    357.53463    34027          411 
 2201000    301.15858   -76.661252    383.66751    34044          428 
 2202000    283.87739   -76.939666    378.06728    34063          447 
 2203000    311.95861   -68.436394    394.69399    34041          425 
 2204000     287.7074   -66.217001    354.03815    34029          413 
 2205000    294.21979   -59.976398    375.68182    34043          427 
 2206000    317.59727   -69.647359    412.27494    34052          436 
 2207000     286.1997   -60.832561    354.30613    34032          416 
 2208000    299.80944   -60.976199    370.98251    34032          416 
 2209000    288.99162   -64.429202    391.27801    34071          455 
 2210000    286.63638   -58.077515    369.33915    34048          432 
 2211000    279.83865   -52.935541    359.47455    34046          430 
 2212000    299.14364   -47.190673    323.06813    33979          363 
 2213000    299.25377   -53.434678    377.28116    34039          423 
 2214000    283.04112   -56.033859     374.7531    34056          440 
 2215000    300.18928   -59.248135    380.41871    34042          426 
 2216000    315.11228   -61.508641    402.57993    34045          429 
 2217000    286.83294    -65.60194    350.15516    34025          409 
 2218000      287.474    -68.51977    364.30983    34042          426 
 2219000    287.41673   -53.548489    363.37413    34040          424 
 2220000    297.62546   -59.950669    356.98107    34018          402 
 2221000     292.0202   -77.806974    386.37062    34060          444 
 2222000    282.70441   -62.169361    390.56452    34080          464 
 2223000    296.05707   -57.856143     369.7115    34035          419 
 2224000    288.89901   -56.209925    347.65759    34020          404 
 2225000    282.73763   -60.733868    350.98656    34033          417 
 2226000    293.88161   -61.178689     348.3367    34014          398 
 2227000    298.58923   -56.150111    361.95477    34023          407 
 2228000    288.90358   -57.909383    359.13841    34034          418 
 2229000    274.19895   -70.282189    347.65887    34042          426 
 2230000    293.82826   -64.587451    391.02756    34062          446 
 2231000    301.89753   -61.344849    382.77303    34042          426 
 2232000    271.52616   -75.776405    372.84349    34077          461 
 2233000    296.74603    -66.38385    382.95926    34048          432 
 2234000    274.84594   -66.514687     386.9001    34089          473 
 2235000    292.59408   -73.020116    377.91951    34049          433 
 2236000    297.98799   -73.649445    385.86539    34051          435 
 2237000    305.12405   -62.227872      372.039    34026          410 
 2238000    300.45271   -73.431314    367.73638    34027          411 
 2239000    306.41638   -68.889183     382.7315    34036          420 
 2240000    268.20638   -61.516317    355.21397    34061          445 
 2241000    299.74382    -65.96736    363.21271    34023          407 
 2242000     315.5981   -70.511216    393.65567    34034          418 
 2243000    296.20751      -63.223    365.70276    34030          414 
 2244000    301.05468   -60.584407     382.4669    34042          426 
 2245000    281.99071    -57.93713    369.78461    34055          439 
 2246000    296.63034   -65.869131    381.19025    34048          432 
 2247000    287.19307   -55.941949    367.53906    34046          430 
 2248000    285.63465   -64.220904    364.17791    34044          428 
 2249000    294.14453   -65.798121    362.92292    34030          414 
 2250000    305.76371   -63.570688      382.122    34036          420 
 2251000    279.25465   -69.750711    343.83078    34030          414 
 2252000    288.23845   -67.243581    359.28705    34035          419 
 2253000    307.18071   -70.926304    408.12415    34062          446 
 2254000    282.76015   -61.717665      387.866    34074          458 
 2255000    299.82096   -53.228573    412.76147    34078          462 
 2256000    279.94176   -57.605609    332.55283    34013          397 
 2257000    297.76285   -56.740082    333.67614    33992          376 
 2258000    313.77741   -54.020154    393.00566    34037          421 
 2259000    290.35521   -60.569644    347.28921    34018          402 
 2260000    274.87651   -56.097573    349.42068    34043          427 
 2261000     306.0345   -51.238509    409.36342    34064          448 
 2262000    306.61625   -59.484603    375.03006    34027          411 
 2263000    279.20664   -71.055128    368.05664    34059          443 
 2264000    289.54322   -67.593835    392.93588    34071          455 
 2265000    290.15539   -56.905759    346.81076    34017          401 
 2266000    305.93228   -67.459441    373.46979    34026          410 
 2267000    303.37001   -67.169411    374.41173    34031          415 
 2268000    294.48381   -66.296505     367.0168    34034          418 
 2269000    291.69357    -58.49229    384.33915    34059          443 
 2270000    289.33807   -61.371002     357.3047    34031          415 
 2271000    279.76033   -69.695115    365.64689    34055          439 
 2272000    293.75061    -72.83846    416.50294    34092          476 
 2273000    303.42595   -63.653399    420.30779    34081          465 
 2274000    303.09664   -58.824984    390.57594    34048          432 
 2275000    273.37714   -62.493336    349.64607    34046          430 
 2276000    295.84221   -61.635917    381.97212    34049          433 
 2277000    284.83631   -61.833921     365.4096    34047          431 
 2278000     291.3986   -60.407005    363.08387    34033          417 
 2279000    294.59708   -63.162617    361.91033    34028          412 
 2280000    289.07981   -53.186986    342.62799    34014          398 
 2281000    291.54815   -54.307192    370.09273    34042          426 
 2282000    289.44708   -54.915199    358.23764    34032          416 
 2283000    288.81413   -57.481906    347.37511    34020          404 
 2284000    295.96064   -60.098813    383.34753    34050          434 
 2285000    295.63421   -61.479687    364.46357    34030          414 
 2286000    305.61432   -61.622152    377.08541    34030          414 
 2287000     309.1214    -57.94532    392.13982    34042          426 
 2288000    299.98887   -54.216316    387.26045    34049          433 
 2289000    298.14739   -58.295266    363.52534    34025          409 
 2290000    283.04435   -57.216471    339.40612    34019          403 
 2291000    283.10664   -55.733576    348.29854    34029          413 
 2292000    295.60526   -67.439105    377.64847    34045          429 
 2293000     296.5707   -62.761266    375.04059    34041          425 
 2294000    284.63655   -61.613913    385.84914    34071          455 
 2295000    298.39643   -71.071262    392.26064    34057          441 
 2296000    328.37119   -65.755667    417.28075    34042          426 
 2297000    288.64944   -57.541252    357.47373    34032          416 
 2298000    303.78542    -57.54155    397.64969    34056          440 
 2299000    301.83575   -57.860517    352.62223    34008          392 
 2300000    292.25286    -62.71191    378.00068    34050          434 
 2301000    279.69867   -69.143591    373.14376    34063          447 
 2302000     301.2895   -63.629417     358.0006    34015          399 
 2303000     306.9495   -63.170496    389.89932    34043          427 
 2304000    296.04922   -63.386055    371.74449    34038          422 
 2305000     286.6949   -69.316269    363.58293    34041          425 
 2306000    314.43232   -72.904112    415.96741    34058          442 
 2307000    300.91078   -64.601655    367.85942    34026          410 
 2308000    281.71874   -55.518677    341.05935    34023          407 
 2309000    286.32256   -54.627966    337.46154    34010          394 
 2310000    282.43502   -56.545649     350.8057    34033          417 
 2311000    304.14892   -60.019803     382.8208    34039          423 
 2312000    288.83255    -53.41391    385.14858    34064          448 
 2313000    294.25301   -65.423261    391.06535    34062          446 
 2314000      288.189   -67.664237    372.57709    34050          434 
 2315000    294.36592   -71.121093    357.74537    34024          408 
 2316000    301.09433   -65.814838    374.24781    34029          413 
 2317000    300.94355   -70.126818     395.7372    34055          439 
 2318000     283.0883    -61.96408    345.22979    34026          410 
 2319000    292.88696    -59.61399    354.80062    34023          407 
 2320000    292.05002   -53.473178    384.91383    34058          442 
 2321000    279.53693   -60.733129    362.10529    34051          435 
 2322000    278.97163   -61.610058    355.67846    34044          428 
 2323000    310.73601   -51.271544    379.08861    34026          410 
 2324000    301.92568   -58.573027    402.71647    34064          448 
 2325000    296.35773   -53.216293     372.9335    34039          423 
 2326000    298.10455   -61.131945    385.68515    34050          434 
 2327000    289.31125   -61.196348    380.11896    34056          440 
 2328000    297.59069   -52.007522    378.35291    34042          426 
 2329000    295.32469   -65.677799     396.7621    34066          450 
 2330000    298.45554   -62.176877    401.77596    34068          452 
 2331000    301.89831   -58.817844    365.15428    34022          406 
 2332000    271.40791   -49.675203    324.19215    34017          401 
 2333000    300.47416   -53.332534    373.17189    34033          417 
 2334000    298.44472   -60.229415     395.3616    34061          445 
 2335000    296.97315   -64.071868    395.78466    34064          448 
 2336000    288.27826   -58.451074    362.04971    34037          421 
 2337000    290.03879   -61.471465    345.91334    34016          400 
 2338000    287.66674   -60.188269    371.85366    34049          433 
 2339000    297.58728   -66.042209    367.60762    34031          415 
 2340000    278.60252   -68.815984    331.80717    34016          400 
 2341000    296.28699    -55.13098    358.38503    34022          406 
 2342000    280.93624   -54.826632    339.21679    34021          405 
 2343000    302.05346   -64.261499    380.17403    34038          422 
 2344000    308.80656   -57.471403    379.34079    34029          413 
 2345000    276.84551   -72.648908    338.23357    34026          410 
 2346000    260.32502   -58.066086    315.92391    34023          407 
 2347000    294.82695   -61.717912    366.45638    34032          416 
 2348000     292.5001   -69.810321    375.42442    34046          430 
 2349000    280.25596   -62.795229    372.20773    34061          445 
 2350000    314.05232     -62.0681    373.82391    34016          400 
 2351000    294.23757   -61.998345    357.07313    34023          407 
 2352000    283.82206   -61.232141    364.60692    34045          429 
 2353000    304.65897   -63.220007    390.73792    34047          431 
 2354000    288.89445   -68.195065    359.57423    34032          416 
 2355000     288.6637   -68.661543    381.10149    34059          443 
 2356000    310.54269   -61.882694    392.75033    34040          424 
 2357000    299.18604   -64.329655    370.41306    34032          416 
 2358000    289.65795   -59.576738    382.21107    34059          443 
 2359000    286.94271   -65.856566    375.35823    34055          439 
 2360000    315.24488   -63.583003    428.79324    34071          455 
 2361000    283.80176   -63.527591    364.39358    34047          431 
 2362000    295.35501   -64.180378    356.35198    34020          404 
 2363000    299.70005   -69.700288    384.16363    34045          429 
 2364000    291.20571   -70.299417    368.85724    34041          425 
 2365000    304.49674   -62.610276    376.32671    34029          413 
 2366000    283.09902   -74.654803    355.28913    34037          421 
 2367000    311.39908   -74.588708    375.24061    34021          405 
 2368000    272.76089   -70.736831     348.5106    34045          429 
 2369000    287.86152   -78.812729    361.25633    34037          421 
 2370000     277.6164   -74.810956    348.23056    34037          421 
 2371000    300.56338   -71.778042    388.07974    34050          434 
 2372000    297.13607    -68.53439    371.01902    34034          418 
 2373000    305.80145   -58.298694    357.72933    34009          393 
 2374000    301.20695   -50.017735    369.56825    34028          412 
 2375000    279.19562   -67.461199     358.6626    34047          431 
 2376000    270.67492   -63.531548    367.26015    34070          454 
 2377000    309.20581   -62.217749    407.81208    34059          443 
 2378000    282.21319   -59.225516    357.57501    34041          425 
 2379000    286.62542   -64.898817    370.29358    34050          434 
 2380000     281.8405    -67.95585    352.61885    34036          420 
 2381000    311.68174    -55.26927    385.36566    34031          415 
 2382000    302.40292   -56.674261    382.34571    34041          425 
 2383000    295.13171   -65.610138     387.2725    34057          441 
 2384000    285.35533    -68.00501    358.48448    34035          419 
 2385000    300.71276   -58.322618    363.53916    34022          406 
 2386000    298.69361    -57.44908    389.72877    34054          438 
 2387000    298.66901   -47.880605    369.83014    34032          416 
 2388000    292.19117   -54.658734    384.46345    34058          442 
 2389000    303.27647   -59.015525    366.61391    34021          405 
 2390000    277.47112   -58.283281    337.07304    34022          406 
 2391000    303.85837    -61.26022    388.35945    34045          429 
 2392000    294.66059   -63.147163    385.01873    34055          439 
 2393000     282.6061   -57.933079    371.01388    34056          440 
 2394000    273.18198   -63.995724     355.6863    34053          437 
 2395000    280.06513   -58.103831    367.46401    34054          438 
 2396000    319.84508   -61.154556    386.53464    34022          406 
 2397000    290.02544   -53.142637    344.09546    34012          396 
 2398000    302.56956   -59.910116    371.73926    34029          413 
 2399000    308.11103   -53.600629    372.20288    34021          405 
 2400000    290.81031   -56.453271     367.0553    34040          424 
 2401000    279.60225   -58.750375    375.81733    34064          448 
 2402000      296.937   -57.743101    374.09843    34039          423 
 2403000    283.80472    -53.91237    338.89533    34014          398 
 2404000    290.64563   -54.762387    340.90814    34009          393 
 2405000    276.15371   -47.029401    317.77411    34003          387 
 2406000    300.56569    -59.89089    366.10001    34024          408 
 2407000    283.92443   -58.961713     348.4557    34028          412 
 2408000    263.47299   -50.417798    318.58852    34022          406 
 2409000    299.76847   -47.796178    358.22668    34017          401 
 2410000    285.37815   -60.202442    356.58745    34036          420 
 2411000    290.36926   -49.699069    340.26407    34010          394 
 2412000    310.27342   -53.543478    353.35703    33998          382 
 2413000    294.35904   -51.168583    345.58921    34010          394 
 2414000    315.11802   -50.660156    371.37075    34012          396 
 2415000    298.10893   -56.480346    371.23561    34034          418 
 2416000    305.35998    -51.36219    340.09857    33990          374 
 2417000    317.34404   -54.360982    395.90903    34035          419 
 2418000    301.32205   -47.289233    383.22374    34042          426 
 2419000    306.77268   -50.016138    371.25644    34022          406 
 2420000    308.10247   -49.687102    374.70354    34023          407 
 2421000    294.48992   -54.168132    367.77902    34035          419 
 2422000    293.43111   -52.816739    378.64483    34049          433 
 2423000    310.51451   -63.192839    393.81599    34041          425 
 2424000    296.64614   -62.905099    368.50263    34032          416 
 2425000    272.08756   -59.604455    333.33575    34026          410 
 2426000    289.32931    -67.00834    383.04944    34061          445 
 2427000    292.74192   -54.646595    374.39635    34046          430 
 2428000    283.80585   -53.535947    357.18242    34038          422 
 2429000    278.03012   -51.800436    322.81375    34006          390 
 2430000     316.0956   -61.094641    381.71959    34022          406 
 2431000    294.02467   -52.269655    349.63101    34014          398 
 2432000    282.16965    -47.87421    326.43261    34001          385 
 2433000    297.65371   -63.743097    343.44926    34003          387 
 2434000     288.3218   -57.725288    347.48362    34020          404 
 2435000     320.8572   -62.182827    382.56533    34016          400 
 2436000    277.18312   -58.923965    328.96427    34015          399 
 2437000    287.32772   -57.258736    329.02076    33996          380 
 2438000    284.16282   -53.589224     317.3444    33991          375 
 2439000    287.68951   -56.129736    341.27729    34014          398 
 2440000    285.47316   -66.983039    348.83921    34026          410 
 2441000    288.27563   -62.707224    368.10384    34045          429 
 2442000    303.33607   -59.228506    354.52221    34009          393 
 2443000    293.17576   -59.191912    362.89899    34032          416 
 2444000    281.82715   -59.607896    370.67313    34058          442 
 2445000    296.56147   -59.294126    387.07476    34054          438 
 2446000    294.38973   -54.387729    350.23225    34015          399 
 2447000      300.253   -55.706768    360.71074    34020          404 
 2448000    295.51106   -62.154079    347.15014    34010          394 
 2449000    286.35423   -60.214741    352.27747    34029          413 
 2450000    302.78153    -64.28096    415.25754    34077          461 
 2451000    289.57518   -68.228875    373.29538    34049          433 
 2452000    296.10744   -64.808106    387.63165    34052          436 
 2453000    304.95815   -67.360366    399.18722    34056          440 
 2454000    296.90608   -67.087975    381.77091    34048          432 
 2455000    319.08692   -63.286828    374.88641    34010          394 
 2456000    299.86349   -59.372354    351.32388    34010          394 
 2457000    305.15258   -62.965782    390.22473    34044          428 
 2458000    276.32003   -58.086181    356.48658    34049          433 
 2459000    286.58327   -68.237269    366.76406    34045          429 
 2460000    302.51669   -61.197098    379.12564    34037          421 
 2461000    305.02036   -60.790564    386.86259    34042          426 
 2462000    290.44001   -66.498573     381.6324    34056          440 
 2463000    274.52627   -66.860393     370.9317    34070          454 
 2464000    305.55077   -70.309068    411.18639    34068          452 
 2465000     286.8437   -68.519021    388.62548    34069          453 
 2466000    299.98629   -70.439079    369.30884    34030          414 
 2467000     299.9062   -70.467657    401.94482    34063          447 
 2468000    293.13945   -72.081592    388.44109    34061          445 
 2469000      312.019   -61.320015    386.10123    34032          416 
 2470000    286.98051   -64.632032    347.69085    34023          407 
 2471000    289.63143   -66.932487    365.31985    34040          424 
 2472000     301.2689   -65.486067    384.37833    34044          428 
 2473000    303.82884    -62.39517    402.29019    34060          444 
 2474000    295.52253   -61.046077    367.88479    34033          417 
 2475000    301.40409   -60.960531    370.66872    34029          413 
 2476000    291.30056   -60.005251    376.20182    34050          434 
 2477000    288.31851   -64.091908    357.76637    34032          416 
 2478000    296.59177   -59.926892    367.92442    34032          416 
 2479000    289.43009   -69.359207    383.19002    34061          445 
 2480000    292.86538   -68.392612    411.27509    34087          471 
 2481000    284.32578   -71.730591    357.15939    34038          422 
 2482000    269.31722    -68.04528    346.02876    34047          431 
 2483000    279.72228    -58.02358    328.66196    34011          395 
 2484000    287.27641   -65.149581    382.51552    34063          447 
 2485000    300.81509   -60.697428    372.59933    34032          416 
 2486000    304.22673   -51.511732    350.44957    34002          386 
 2487000    280.77949   -60.954904    323.46268    34003          387 
 2488000    285.33132   -65.149792    343.50551    34020          404 
 2489000    286.61806   -59.193222    352.25307    34027          411 
 2490000    282.48785   -68.986638     344.3676    34025          409 
 2491000    299.16305   -73.364914    413.39841    34080          464 
 2492000    291.61177   -62.897216    366.07871    34038          422 
 2493000    307.48632   -63.725996    391.65061    34043          427 
 2494000    300.86172   -62.415748    364.46081    34023          407 
 2495000    313.14629   -58.614499    367.77438    34010          394 
 2496000    297.55081    -59.14665    360.16994    34021          405 
 2497000    291.22811    -59.55369    349.39164    34019          403 
 2498000    298.26181   -57.178971    368.48148    34031          415 
 2499000    265.21316   -60.463568    325.96879    34027          411 
 2500000    299.89744    -67.82183     410.9649    34076          460 
 2501000     297.4628    -63.44952    361.20166    34024          408 
 2502000     292.4269   -61.948776    352.17273    34021          405 
 2503000    314.68703   -71.139048     404.5257    34048          432 
 2504000     288.9466   -67.214054    337.08243    34007          391 
 2505000    321.96075   -72.672035    423.10724    34057          441 
 2506000    291.74488   -70.093345     400.3592    34076          460 
 2507000    291.79082   -74.207773    365.42569    34037          421 
 2508000    289.02922     -65.2426    383.42243    34062          446 
 2509000    287.82447   -68.249222    384.85115    34063          447 
 2510000    302.09838   -67.697202    394.44779    34053          437 
 2511000    295.33146   -64.133785    395.94264    34064          448 
 2512000    253.56924   -67.947202     308.8491    34023          407 
 2513000    284.73261   -68.640251    347.26365    34025          409 
 2514000    280.75277   -62.691924    356.27396    34042          426 
 2515000    294.90119   -67.299125    371.39236    34039          423 
 2516000    296.50316   -59.409283     375.2351    34040          424 
 2517000    282.09538   -58.236636    349.02355    34031          415 
 2518000    289.94397   -62.816952    381.35889    34058          442 
 2519000    298.65049   -68.640478    368.94816    34031          415 
 2520000    295.71608   -59.266449    344.40443    34006          390 
 2521000    291.74338   -61.815082    343.81379    34012          396 
 2522000    284.03014   -54.712071    351.28234    34031          415 
 2523000    276.03312   -63.035638    344.67536    34032          416 
 2524000    301.84813   -61.717737     380.0539    34038          422 
 2525000    286.28958   -56.349671    350.53835    34027          411 
 2526000     298.4465   -54.096905    369.11125    34030          414 
 2527000    277.01545   -67.184872    347.74846    34036          420 
 2528000    319.11114   -61.017453    420.50746    34059          443 
 2529000    301.12966   -61.471082     414.8171    34078          462 
 2530000    286.49813   -78.006248      379.105    34060          444 
 2531000     292.8484   -58.483204    366.26125    34036          420 
 2532000    311.70865   -61.572243    380.62083    34026          410 
 2533000    328.04291   -74.398415    430.66365    34056          440 
 2534000    285.79559   -65.126757    357.40612    34035          419 
 2535000    277.36026   -58.724104    325.42561    34009          393 
 2536000    280.47071   -55.821732    325.69076    34006          390 
 2537000    283.92214   -61.739212    362.47496    34045          429 
 2538000    300.74959   -56.811422     357.3038    34015          399 
 2539000    309.72761   -52.477306    392.00683    34041          425 
 2540000    299.98564   -64.114412    372.26989    34032          416 
 2541000    301.17565   -60.366123    392.68632    34054          438 
 2542000    296.06713   -71.787795    383.15881    34051          435 
 2543000    298.50659    -63.47466    391.80889    34056          440 
 2544000    307.52545   -54.926357    389.66426    34042          426 
 2545000     297.8806    -53.42057    353.22377    34014          398 
 2546000    300.41006   -68.394218    379.82867    34040          424 
 2547000    293.99591   -67.447661    373.19473    34042          426 
 2548000    307.48203   -63.813172    391.69188    34043          427 
 2549000    299.16909   -57.422351    395.17649    34060          444 
 2550000    277.59142   -63.924833    376.65291    34072          456 
 2551000    313.12661   -62.785213    410.74832    34057          441 
 2552000    273.37931   -63.567478    349.96866    34046          430 
 2553000    292.99635   -67.331231    397.79104    34072          456 
 2554000     299.8633   -61.766156    407.60329    34073          457 
 2555000     295.2994   -61.106953    388.44371    34058          442 
 2556000    281.92721   -64.797059    356.15761    34039          423 
 2557000    282.01783   -49.937214    334.50905    34013          397 
 2558000    292.53121   -52.546939    329.34933    33993          377 
 2559000    293.89662   -52.269063    363.71429    34032          416 
 2560000    292.64591    -59.54871    364.56514    34032          416 
 2561000    275.76124   -59.875751    362.30776    34056          440 
 2562000    304.16352   -52.452384    393.63707    34051          435 
 2563000    299.52302   -49.977253    389.19213    34052          436 
 2564000     301.4221   -56.715949    373.51352    34031          415 
 2565000    288.24547   -62.889157     398.9535    34080          464 
 2566000    295.74469   -61.439206    373.88299    34040          424 
 2567000    276.21288   -60.695534    365.83356    34060          444 
 2568000    300.00358   -70.246896    397.23119    34061          445 
 2569000      297.557   -62.410263    352.15415    34014          398 
 2570000    291.27265   -60.400145    353.37844    34024          408 
 2571000    297.57522   -71.892699    359.74984    34021          405 
 2572000    274.93304   -64.124065    333.76833    34024          408 
 2573000    294.73801   -64.837539     348.9178    34014          398 
 2574000    317.52317   -65.076468    399.47821    34039          423 
 2575000    307.38406   -59.314688    420.42863    34074          458 
 2576000    320.74053   -59.309085    412.24537    34048          432 
 2577000    293.79997   -54.736601    359.05107    34026          410 
 2578000    294.02167   -56.730913    368.23271    34036          420 
 2579000    292.15295   -59.184321    367.48852    34038          422 
 2580000    268.54625   -55.266079    312.52096    34007          391 
 2581000    311.68356     -57.1306    359.93398    34004          388 
 2582000    302.76088   -48.423556     386.0919    34044          428 
 2583000    294.95688   -55.168892    354.10385    34019          403 
 2584000    263.24761   -58.248606    313.56126    34016          400 
 2585000    285.25799   -59.737685     364.7179    34043          427 
 2586000     308.6677   -56.505856    360.98473    34009          393 
 2587000    285.64216   -59.145401    334.91322    34010          394 
 2588000    289.50209   -73.598724    376.57015    34053          437 
 2589000    308.18283   -67.188459    390.80151    34041          425 
 2590000    291.88734   -68.713107    368.26964    34039          423 
 2591000    301.49427   -66.644385    378.27839    34035          419 
 2592000    288.92829     -64.6298    374.97131    34051          435 
 2593000    294.22949   -71.428159    402.78589    34074          458 
 2594000    294.42095   -63.454475    390.48241    34061          445 
 2595000    306.63048   -59.222111    405.90364    34060          444 
 2596000    286.64946   -60.083091    376.69855    34057          441 
 2597000    297.32872   -46.511673    367.58769    34029          413 
 2598000    281.12083   -49.243733    336.47028    34018          402 
 2599000    287.78024   -56.411334    352.05825    34026          410 
 2600000    287.59847   -42.457524    345.07807    34017          401 
 2601000    290.24585   -50.953944      337.956    34006          390 
 2602000    310.04009   -50.692341    346.96089    33992          376 
 2603000    271.32341   -53.963886    342.82901    34040          424 
 2604000    294.28779    -55.31131    357.74925    34024          408 
 2605000    287.53933   -55.845648    354.47902    34029          413 
 2606000    312.58261   -61.143609    426.89178    34074          458 
 2607000    300.28371   -55.854882    375.06345    34035          419 
 2608000    272.30806   -57.755649    300.71696    33987          371 
 2609000    282.32242    -52.34562    332.41994    34011          395 
 2610000    300.66893   -55.755371    370.07384    34029          413 
 2611000    276.73912   -61.051367    348.39496    34039          423 
 2612000    311.31435   -65.291847    404.12646    34051          435 
 2613000    283.63307   -67.859238    341.76497    34021          405 
 2614000     287.7106   -63.371309    353.90163    34028          412 
 2615000    315.08521   -63.388797    376.26703    34017          401 
 2616000    276.86977   -55.942706    344.51493    34032          416 
 2617000    300.72157   -55.060778    382.27653    34043          427 
 2618000    298.21863   -53.913819    372.76613    34036          420 
 2619000    302.08526   -59.252836    406.27347    34067          451 
 2620000    308.05768   -56.158628    392.70278    34044          428 
 2621000    311.81304   -66.317864    414.79921    34062          446 
 2622000     297.0201   -66.155372    369.11703    34033          417 
 2623000     287.0452   -56.561694    367.98899    34046          430 
 2624000    275.46058   -59.550109    339.50378    34029          413 
 2625000    288.66231   -62.678176    313.48211    33981          365 
 2626000    307.85363   -53.264761    385.57952    34036          420 
 2627000    295.00846   -61.758462    352.88521    34016          400 
 2628000    315.61227   -53.057492    394.26832    34035          419 
 2629000    299.02593   -57.064637    362.55352    34022          406 
 2630000    305.85127   -58.755827    362.35348    34014          398 
 2631000    290.47661   -53.419549    336.16814    34005          389 
 2632000    310.28971   -48.002661    370.65907    34017          401 
 2633000    291.66578   -56.421252    323.07492    33988          372 
 2634000    281.80693    -51.14164    330.41388    34009          393 
 2635000    297.99123   -51.403759       385.17    34049          433 
 2636000    304.55933   -47.487828    398.75621    34056          440 
 2637000     295.7531   -57.338439    371.31897    34038          422 
 2638000    289.01878   -63.252968    351.50888    34025          409 
 2639000    294.58011   -61.149762    361.34356    34028          412 
 2640000    292.13673   -56.076525    353.54377    34021          405 
 2641000    290.59973   -60.265972    337.44948    34004          388 
 2642000    282.24043   -61.095874    367.05526    34053          437 
 2643000     308.0241   -63.610926    393.75018    34045          429 
 2644000    293.20495   -63.571202    355.12344    34023          407 
 2645000    328.63878    -66.12563    390.18424    34015          399 
 2646000     295.2381    -63.29109    371.86301    34039          423 
 2647000    280.23355   -67.074193    343.84449    34028          412 
 2648000    296.32618   -74.093946    358.80227    34023          407 
 2649000    299.45669   -68.166098    383.82723    34045          429 
 2650000     303.5052   -64.557278    398.36393    34056          440 
 2651000    274.70558   -64.301092    365.69543    34061          445 
 2652000    292.11509   -58.122317    389.38044    34064          448 
 2653000    282.78786    -56.11594    371.16827    34057          441 
 2654000    310.57392   -54.905063    389.00557    34037          421 
 2655000     287.2821   -52.973218     326.3559    33997          381 
 2656000    295.55647   -53.664356    347.48254    34011          395 
 2657000    287.90487   -62.955199    369.28789    34045          429 
 2658000    281.95761   -61.108422    377.57647    34064          448 
 2659000     296.0934   -62.318445    382.91454    34050          434 
 2660000    287.48605   -56.165785    343.89978    34017          401 
 2661000    288.68313   -54.567374    335.74811    34007          391 
 2662000     323.0933   -52.313327    391.53606    34023          407 
 2663000    285.50437   -62.199354    377.23776    34060          444 
 2664000    305.64327    -64.33225    403.38515    34059          443 
 2665000    291.36622   -64.204359    376.72959    34049          433 
 2666000    311.52189   -61.762882    375.56482    34021          405 
 2667000    291.97751   -59.494064     378.9817    34052          436 
 2668000    275.70964   -56.403717    359.99428    34055          439 
 2669000    286.34953   -63.491932    368.91891    34049          433 
 2670000    322.44687   -55.072621    403.61222    34035          419 
 2671000    288.71633   -58.122455    337.66367    34009          393 
 2672000    308.57395   -62.061746    395.20813    34045          429 
 2673000    307.23984   -60.602729    369.39377    34020          404 
 2674000     307.0374   -55.525586    371.07969    34022          406 
 2675000    276.26982   -61.064828    346.63486    34036          420 
 2676000    289.60963   -61.722684    367.64194    34042          426 
 2677000    277.21762   -51.696824    338.05447    34025          409 
 2678000    295.11323   -57.637535    372.28051    34039          423 
 2679000    300.40811    -55.50525    369.10637    34028          412 
 2680000    289.07619   -55.894203    356.77349    34031          415 
 2681000    275.09773   -64.137944    332.50777    34022          406 
 2682000    295.74667   -55.837787    361.41274    34026          410 
 2683000    301.53755   -62.120423    380.37343    34040          424 
 2684000    271.94035   -51.108799    337.63147    34033          417 
 2685000    294.64046    -57.05177    370.11032    34037          421 
 2686000     288.4765   -58.262367    362.27376    34038          422 
 2687000    291.13182   -65.741384     370.0587    34043          427 
 2688000     322.0272   -63.493874    417.15801    34050          434 
 2689000    278.02622   -65.316413    353.41914    34043          427 
 2690000    288.38445    -70.02455    382.50043    34060          444 
 2691000    266.75578   -73.233104    354.63573    34062          446 
 2692000       299.23   -68.974829    364.00669    34025          409 
 2693000    282.89675   -68.452875    352.80377    34032          416 
 2694000    285.50058   -66.457528    378.95309    34062          446 
 2695000    290.60401   -67.012612    370.40033    34044          428 
 2696000    296.24487    -58.92129    386.10403    34053          437 
 2697000    292.98982   -56.756154    363.02997    34032          416 
 2698000    298.11629   -59.161825    356.54547    34017          401 
 2699000    294.33232    -63.73121    375.07856    34044          428 
 2700000    299.04672   -68.007953    369.52065    34031          415 
 2701000    272.74166   -69.858392    350.92899    34047          431 
 2702000    286.95778   -66.096946    354.34552    34031          415 
 2703000    306.65086   -62.983796    373.89696    34026          410 
 2704000    287.41002   -65.968137     364.3254    34042          426 
 2705000    275.93328   -58.002623    366.21688    34062          446 
 2706000     300.3023   -64.746179    376.76904    34037          421 
 2707000    277.09134   -65.011575     343.2208    34032          416 
 2708000    290.96893   -77.920285    419.53707    34098          482 
 2709000    294.44135   -69.480115    364.59501    34030          414 
 2710000    302.11892   -73.777475    387.00385    34046          430 
 2711000    299.00254   -67.564773    381.82517    34045          429 
 2712000    303.21661   -69.407379      380.537    34036          420 
 2713000    274.58162   -64.531039    344.67218    34038          422 
 2714000    295.78334   -60.367798    377.36062    34043          427 
 2715000     299.4331   -54.145579    355.27201    34015          399 
 2716000    285.21695   -59.252662    344.51722    34022          406 
 2717000    279.12184   -59.295272    350.23145    34037          421 
 2718000    289.03562   -55.543877    335.84258    34006          390 
 2719000    289.85803   -46.927654    342.02058    34010          394 
 2720000    286.08628   -59.417082    345.46199    34021          405 
 2721000    306.42291   -52.998166    370.36938    34022          406 
 2722000    286.33139   -54.365756    358.02143    34036          420 
 2723000    295.62323   -56.668298     371.3676    34038          422 
 2724000    320.12321   -62.926427    380.96758    34016          400 
 2725000    304.87638   -72.610056    369.81947    34023          407 
 2726000    295.23477   -72.088053    366.31414    34033          417 
 2727000    301.99483   -59.978368    399.19286    34060          444 
 2728000     289.8028   -70.416485     392.2232    34070          454 
 2729000    291.63671    -69.12252     376.6487    34049          433 
 2730000    301.38166    -62.93607    393.17697    34054          438 
 2731000    296.55224   -65.007251    381.74514    34048          432 
 2732000    282.98223   -60.127951    372.65853    34058          442 
 2733000    293.70611   -53.492037    354.82351    34022          406 
 2734000    308.99133   -54.053263    389.20757    34039          423 
 2735000    280.31286   -58.644989    335.08298    34017          401 
 2736000    297.78281    -62.10152    384.37568    34049          433 
 2737000    307.62105   -60.859902    396.20531    34048          432 
 2738000     292.9077   -49.073186    388.18826    34061          445 
 2739000    285.75498   -50.497604    340.71922    34017          401 
 2740000    305.49915   -51.528998    364.36516    34017          401 
 2741000    291.47257   -58.145551    341.74094    34008          392 
 2742000    282.46712   -51.555658    325.77082    34001          385 
 2743000    296.45181   -45.008311    335.98702    33996          380 
 2744000    264.57063    -47.79329    297.22709    33993          377 
 2745000    287.78112   -50.199404    362.98703    34040          424 
 2746000    284.60587   -54.281226    348.85012    34028          412 
 2747000    303.05903   -53.627157    380.26706    34035          419 
 2748000    280.46116   -58.521731    377.09925    34067          451 
 2749000    279.62231   -55.484919    333.54978    34016          400 
 2750000    292.88458   -61.805488    368.64133    34038          422 
 2751000    296.59198   -53.093811    352.87684    34015          399 
 2752000    281.64322   -51.657366    316.93267    33994          378 
 2753000    291.64634   -53.763003    334.15874    34001          385 
 2754000    279.47921   -55.077347    365.94381    34054          438 
 2755000    297.88225   -48.476551    353.52262    34015          399 
 2756000    309.45792   -43.745779    360.93113    34008          392 
 2757000    273.12054   -43.253645    309.88377    33995          379 
 2758000    282.32561   -41.037205    340.58466    34020          404 
 2759000    293.60281   -48.119706     360.1873    34027          411 
 2760000    301.41946   -53.030633    367.67248    34026          410 
 2761000    299.82717   -49.815581     350.0832    34005          389 
 2762000    298.45985   -56.416696    356.41022    34017          401 
 2763000    310.22528   -58.451998    373.18407    34018          402 
 2764000    288.49501   -56.848188    369.64342    34046          430 
 2765000    282.16871   -60.411037    382.98918    34072          456 
 2766000    292.97941   -51.149123    361.08827    34030          414 
 2767000    286.27613   -54.127871    347.10088    34020          404 
 2768000    303.35201   -58.063149    351.80542    34004          388 
 2769000    288.34822   -58.005015    348.97453    34022          406 
 2770000    307.29811   -59.395824    348.26351    33996          380 
 2771000    305.70834   -50.724592    375.87559    34029          413 
 2772000    297.93585    -64.97678    365.38867    34028          412 
 2773000    300.30138   -55.520265    336.89904    33993          377 
 2774000    277.01209   -57.078414     337.7214    34025          409 
 2775000    314.32085   -68.900174    395.57941    34039          423 
 2776000     298.6173   -63.805355    394.45918    34060          444 
 2777000    283.73889   -67.030904    362.52346    34045          429 
 2778000    298.63416   -64.525644    392.61618    34057          441 
 2779000     301.2129   -63.254652     381.1448    34041          425 
 2780000    289.18191   -62.230544    372.43081    34049          433 
 2781000    298.74051   -51.374643    347.57165    34007          391 
 2782000    293.26506   -65.138947    357.90886    34026          410 
 2783000    289.18692   -64.908679    361.99746    34036          420 
 2784000    319.28711   -62.888792    403.44867    34040          424 
 2785000    293.94146   -69.879613    378.29187    34048          432 
 2786000    292.96151   -68.394268    375.41453    34046          430 
 2787000    275.88981   -58.598812    348.07114    34040          424 
 2788000    297.09829   -68.676065    397.74931    34066          450 
 2789000    295.11055    -54.90025    372.20525    34040          424 
 2790000    301.55609   -53.798806    396.61027    34057          441 
 2791000    305.72839   -59.946114    388.31934    34043          427 
 2792000    282.75864   -63.865515    348.95463    34030          414 
 2793000    311.79811   -66.710681    428.20967    34077          461 
 2794000    285.42863   -75.204849    378.17738    34059          443 
 2795000    304.48484    -60.71532    371.13562    34023          407 
 2796000    277.78754   -53.564397    335.82211    34021          405 
 2797000    300.01947   -52.331902    351.74205    34010          394 
 2798000    303.54786   -53.973766    361.39931    34016          400 
 2799000    282.93022   -49.499161    324.94736    34002          386 
 2800000    285.34427   -52.698542     323.3946    33996          380 
 2801000     298.5804    -52.67245    377.93818    34041          425 
 2802000    296.38741   -52.082596    381.14203    34047          431 
 2803000    285.13092   -55.941994    353.40091    34032          416 
 2804000    315.96031   -56.926332    400.49688    34041          425 
 2805000     279.4325   -62.875297    351.78225    34035          419 
 2806000     283.3767   -54.739445     358.8583    34041          425 
 2807000    303.68431   -66.504125    378.62644    34034          418 
 2808000    300.96572   -70.605046    371.11707    34030          414 
 2809000     291.5089   -67.181565    366.08853    34038          422 
 2810000     290.1096   -59.383281    381.79522    34056          440 
 2811000    300.95885   -57.961693    392.11899    34054          438 
 2812000     296.3771   -67.032197    374.59958    34040          424 
 2813000    284.15007   -59.658743    334.27455    34011          395 
 2814000    292.51244   -59.243724    328.81664    33993          377 
 2815000    293.65875   -55.042943    346.93914    34013          397 
 2816000    282.27384   -64.141519    360.46599    34043          427 
 2817000    279.72643   -59.805352    343.32544    34028          412 
 2818000    292.40287   -62.632098    373.75095    34045          429 
 2819000    296.35879   -61.047818    352.75192    34016          400 
 2820000    284.79639    -59.57063    359.79629    34040          424 
 2821000    305.21338   -62.796396    379.00888    34033          417 
 2822000    280.07486   -63.286424    339.28781    34023          407 
 2823000    284.05522   -58.606499    331.17089    34008          392 
 2824000    294.09285   -52.950956     368.7754    34036          420 
 2825000    263.63525   -54.738384    325.38385    34030          414 
 2826000    286.94319   -55.861301    341.75988    34016          400 
 2827000    296.12583   -56.398349    365.92401    34029          413 
 2828000    277.35293   -58.331691    351.65129    34040          424 
 2829000    289.21556   -55.682404    349.53242    34022          406 
 2830000    312.51747   -62.673212     403.3843    34050          434 
 2831000    295.15013   -55.836549    368.70695    34036          420 
 2832000    306.84875    -56.75966    397.24818    34051          435 
 2833000    280.47989   -49.677619    328.49906    34009          393 
 2834000    295.06649   -52.545622    339.06089    34002          386 
 2835000    300.86126   -59.468498     399.0383    34061          445 
 2836000    274.17474   -45.547948    334.10545    34025          409 
 2837000    292.60992   -62.236361    347.26539    34014          398 
 2838000    302.33265   -51.381863    392.48996    34052          436 
 2839000    298.75618   -57.444731    393.47287    34058          442 
 2840000    290.40513   -64.417972    372.02219    34045          429 
 2841000    281.95307   -59.660431    356.05863    34040          424 
 2842000    281.02893   -63.778931     343.1305    34026          410 
 2843000    297.62163   -58.696371    349.84654    34010          394 
 2844000    297.68159   -59.306217    394.15822    34060          444 
 2845000    301.94239   -56.371741    365.96232    34023          407 
 2846000    291.00508   -57.153006    371.43954    34044          428 
 2847000    277.52777   -59.368757    336.02814    34023          407 
 2848000    304.24339   -61.245512    372.85941    34028          412 
 2849000    279.80549   -56.679718    344.64223    34029          413 
 2850000    280.85418   -58.648413    366.29772    34054          438 
 2851000    283.73335     -64.3192    356.77444    34038          422 
 2852000    296.05059   -61.298242    368.69975    34034          418 
 2853000    279.59818   -68.505668    344.24829    34029          413 
 2854000    298.99206   -56.615811     350.1739    34007          391 
 2855000    293.08519   -55.020099    345.21246    34011          395 
 2856000    307.26429   -62.098364    399.66255    34053          437 
 2857000    299.02733   -55.343104    367.25832    34028          412 
 2858000    275.42038   -59.503728    343.66673    34035          419 
 2859000    295.88964   -53.994039    360.90408    34025          409 
 2860000     275.1706   -55.800471      336.906    34027          411 
 2861000    278.66064   -49.131757    335.84831    34019          403 
 2862000    308.62871   -48.368523    327.03001    33970          354 
 2863000    306.36369   -52.403951    351.36544    34001          385 
 2864000    317.52754   -55.446393    411.37411    34051          435 
 2865000    274.44092   -59.728437    319.54161    34006          390 
 2866000    278.95749   -58.328523    331.38648    34015          399 
 2867000     293.8774   -57.491773     367.7021    34034          418 
 2868000    293.10137   -53.878814    396.86362    34070          454 
 2869000    290.73293   -59.253754    386.17843    34062          446 
 2870000     324.9622   -52.155157    402.74622    34032          416 
 2871000    285.03698   -51.231916    360.81734    34041          425 
 2872000    285.82475   -54.327159    377.01896    34057          441 
 2873000    295.32503   -50.044711    377.26428    34045          429 
 2874000    275.44187   -54.099265    322.95928    34010          394 
 2875000    303.66682     -54.7916    365.09538    34020          404 
 2876000    274.25733   -50.594307    345.27188    34038          422 
 2877000    295.79488   -54.872766    346.84407    34010          394 
 2878000    282.49817   -58.922034       339.63    34020          404 
 2879000    299.30184   -49.249166    359.77216    34020          404 
 2880000    303.02673   -50.647643    345.54278    33999          383 
 2881000     290.9269   -62.726236    353.03782    34023          407 
 2882000     286.1045   -59.439163    356.61933    34035          419 
 2883000    283.69471   -59.398594    351.09374    34032          416 
 2884000    281.69248   -59.499125    357.29497    34042          426 
 2885000    308.01269   -61.703889    402.76616    34054          438 
 2886000    276.51567   -57.862694    334.55917    34021          405 
 2887000    291.49557    -59.40096    358.01005    34028          412 
 2888000    260.48178   -58.965662    316.85096    34024          408 
 2889000     278.5219   -53.690753    335.21727    34019          403 
 2890000    303.41708   -57.079523    354.25768    34008          392 
 2891000    305.55009   -48.594749    363.46599    34015          399 
 2892000    309.37558   -52.488776    362.82378    34010          394 
 2893000     317.5839    -54.92265    406.05551    34045          429 
 2894000    288.64436   -56.492453    368.68689    34045          429 
 2895000    298.07693   -51.229924    375.55445    34039          423 
 2896000    321.74973     -50.4298    376.07793    34008          392 
 2897000    286.73104   -52.203986    315.03234    33985          369 
 2898000    284.98003   -42.404458    332.69342    34007          391 
 2899000    279.62143   -48.032581    355.29945    34042          426 
 2900000    282.99526   -50.246212    338.36968    34017          401 
 2901000    276.17272   -50.658143      323.532    34008          392 
 2902000     308.2226   -49.476492    363.35454    34012          396 
 2903000     268.5837   -58.771722     360.4025    34067          451 
 2904000    290.92524   -54.905028    362.98812    34035          419 
 2905000    302.36515   -54.156311    365.22919    34022          406 
 2906000    281.08115   -55.438065    354.75755    34040          424 
 2907000     294.0297   -51.157694    342.48015    34006          390 
 2908000    281.44812   -57.073024    325.08134    34004          388 
 2909000     282.7382   -54.352374    356.02508    34037          421 
 2910000    277.40937   -49.180347    348.18362    34038          422 
 2911000    303.57882   -60.846019    368.58552    34022          406 
 2912000    295.18659   -60.632695     375.3129    34041          425 
 2913000    278.67695   -48.076139    355.86401    34043          427 
 2914000    287.75023   -53.902992     365.5999    34043          427 
 2915000    309.81305    -47.57306    375.46372    34023          407 
 2916000    312.05584   -52.015941    357.48184    33999          383 
 2917000    294.29737   -54.003795    369.20071    34037          421 
 2918000    288.00662   -57.679279    321.87666    33989          373 
 2919000    290.50184   -59.786189    351.02255    34021          405 
 2920000    288.36141   -52.087849    362.30513    34038          422 
 2921000    286.32488     -58.9015    350.89311    34028          412 
 2922000     294.9209   -52.855319    362.33232    34029          413 
 2923000    292.63164    -49.16941    351.87946    34017          401 
 2924000     301.2386   -53.012782    368.36368    34027          411 
 2925000    298.20407   -51.224005    361.23442    34023          407 
 2926000    288.11084   -60.347104    369.00779    34046          430 
 2927000    296.70491   -61.616034    356.10978    34018          402 
 2928000    266.55158   -55.499415    308.92225    34005          389 
 2929000    300.03349   -55.037319    366.07119    34026          410 
 2930000    292.91219   -52.853021    379.61922    34051          435 
 2931000    305.73405   -58.728245    364.27756    34016          400 
 2932000     294.9007   -56.325178    367.49237    34033          417 
 2933000    287.60853   -56.228801    348.00566    34021          405 
 2934000    291.50613   -39.374922    335.79304    34002          386 
 2935000    298.04277   -46.099529    352.07965    34011          395 
 2936000     307.6209   -44.796409    365.66368    34014          398 
 2937000    303.87442   -36.476798    365.53702    34017          401 
 2938000     293.6891   -48.597814    349.01393    34014          398 
 2939000    299.89237   -44.858281    367.46504    34028          412 
 2940000    276.38962   -58.942625    378.51967    34076          460 
 2941000    296.89521   -51.486873    361.66601    34024          408 
 2942000    313.69576   -48.635881    388.12447    34031          415 
 2943000    290.06661   -60.960422    354.07454    34025          409 
 2944000    303.08804   -57.092201    387.19052    34045          429 
 2945000    302.57653   -61.640525    373.21216    34029          413 
 2946000    307.33304   -55.863494    365.54533    34016          400 
 2947000    294.02853   -59.096679     356.0532    34023          407 
 2948000    304.76166   -62.191359    366.76714    34019          403 
 2949000    286.87161   -61.759787    368.76857    34047          431 
 2950000    288.25517   -59.488308    346.02785    34018          402 
 2951000    320.32492   -58.863737    395.32947    34031          415 
 2952000    297.57476   -58.272607    370.81547    34033          417 
 2953000    274.11529   -61.982102    353.74824    34049          433 
 2954000    303.18412   -57.688945    369.11207    34025          409 
 2955000    306.70018    -62.10405    371.47718    34023          407 
 2956000    291.97361   -66.390216    362.80393    34032          416 
 2957000     289.9189   -58.470611    385.56744    34062          446 
 2958000    311.69726   -53.972902    412.30887    34058          442 
 2959000    316.27383   -66.067661    408.29243    34049          433 
 2960000    318.16422   -59.015852    416.61802    34056          440 
 2961000    290.14653    -67.94015    373.63265    34047          431 
 2962000    291.71934   -69.749601    385.51251    34060          444 
 2963000    310.68311   -66.925739    368.72227    34015          399 
 2964000     311.7807   -65.601846     388.5588    34035          419 
 2965000    295.34912   -67.371182    366.65099    34033          417 
 2966000    283.57432   -57.628736    334.03443    34010          394 
 2967000    319.09401   -63.685159    390.20803    34026          410 
 2968000    292.18049   -59.310698    326.68119    33991          375 
 2969000    302.35991   -62.518532    368.92909    34026          410 
 2970000    289.17339    -65.59425    360.57553    34035          419 
 2971000     283.6271   -65.116106    359.29914    34038          422 
 2972000    267.21934   -66.407379    312.09218    34007          391 
 2973000    298.23009   -61.516682    363.57933    34025          409 
 2974000    279.58511   -65.090448     353.0056    34040          424 
 2975000    297.31096   -69.610373    384.09456    34050          434 
 2976000    289.10405   -65.308484    387.88227    34066          450 
 2977000    295.21071    -64.33283    386.94797    34056          440 
 2978000    306.59284   -75.534872    387.02032    34040          424 
 2979000    298.57001   -71.167779    383.70027    34047          431 
 2980000    293.63141   -67.218663    386.79295    34058          442 
 2981000    271.56433   -64.773417    360.40341    34062          446 
 2982000    287.65088    -71.62853     388.1167    34068          452 
 2983000    305.61683   -60.635594    377.86368    34031          415 
 2984000    302.25107   -65.150304    365.32652    34022          406 
 2985000    276.99461   -60.626007    371.01432    34065          449 
 2986000    299.95179   -67.635929    381.95578    34042          426 
 2987000    290.44019   -71.740277    374.78874    34049          433 
 2988000    288.18449   -60.405082    362.13051    34037          421 
 2989000    294.43074   -62.688246    375.17418    34044          428 
 2990000    301.13271   -62.171206    356.19982    34013          397 
 2991000    300.77349   -58.655443     388.1378    34049          433 
 2992000    304.11394   -59.177847    376.96626    34032          416 
 2993000    279.76013   -64.179983    356.77671    34044          428 
 2994000     311.6701   -61.194746    393.66409    34039          423 
 2995000    288.30295   -64.118859      368.959    34046          430 
 2996000    290.11068   -57.203177    360.27149    34030          414 
 2997000    277.35663   -58.495169    323.47762    34007          391 
 2998000    273.74496   -65.404363    344.13188    34038          422 
 2999000    292.38872   -68.499522    358.38575    34028          412 
 3000000    308.02221    -73.39098    383.00769    34034          418 
 3001000    283.77519   -72.845439    350.99116    34031          415 
 3002000    286.12096   -68.393677    349.23221    34026          410 
 3003000    300.33944   -69.414956    378.68497    34039          423 
 3004000    283.81295   -59.528632    352.06969    34033          417 
 3005000    280.45059   -62.479402    353.94462    34040          424 
 3006000    307.12331   -64.829774    406.06526    34060          444 
 3007000    282.86784   -69.241322    389.81235    34079          463 
 3008000    291.27654   -66.173887    383.57813    34056          440 
 3009000    303.03227   -59.739106    367.30955    34023          407 
 3010000    281.03675   -63.823081    327.56417    34007          391 
 3011000    304.01825   -61.761062    358.57637    34011          395 
 3012000    297.83433   -67.257146    374.41282    34038          422 
 3013000    270.44821   -66.094155    329.81578    34026          410 
 3014000    283.17593   -65.744998    374.88194    34060          444 
 3015000    303.02295   -56.930704    409.74359    34070          454 
 3016000    313.28021   -55.257156    355.85807    33997          381 
 3017000    281.68819   -57.109843    362.02038    34046          430 
 3018000    282.35147   -61.636336    350.73121    34033          417 
 3019000    303.29886   -68.704917    412.08156    34072          456 
 3020000     297.6718   -69.136045    397.57813    34065          449 
 3021000    282.11245   -71.324807    397.28648    34089          473 
 3022000    303.77241   -67.992192    418.52788    34079          463 
 3023000    300.48543    -69.21893     393.8723    34056          440 
 3024000    285.72684   -69.073908    383.20717    34066          450 
 3025000    282.88964   -64.504109    371.56176    34057          441 
 3026000    289.69276   -58.348769    362.86163    34037          421 
 3027000    289.83037   -64.119361    376.57956    34052          436 
 3028000    299.16471   -62.285667    344.32365    34003          387 
 3029000    309.94301   -67.420231    410.47237    34060          444 
 3030000    288.53141   -64.403235    343.98777    34016          400 
 3031000     281.7112   -63.564087    350.63537    34033          417 
 3032000    298.35909   -55.539488    370.76751    34033          417 
 3033000    288.56462   -52.906376    356.38957    34030          414 
 3034000    282.56634   -50.524593    312.82447    33987          371 
 3035000    286.66758   -64.565693    353.48634    34030          414 
 3036000    279.22602   -61.040836    303.99822    33982          366 
 3037000    295.12596   -50.139626    337.26299    33999          383 
 3038000    306.49705   -54.755249    356.78173    34005          389 
 3039000    284.75719   -55.734434    328.27738    34003          387 
 3040000    300.76943   -65.440051    358.97379    34017          401 
 3041000    291.78173   -63.026966    381.72084    34054          438 
 3042000    294.40909   -61.777529    375.08077    34044          428 
 3043000     285.1076   -58.991154    366.76687    34048          432 
 3044000    302.51057   -66.202443    375.78111    34033          417 
 3045000    291.56887   -57.830308    361.90813    34032          416 
 3046000    282.29448   -61.358119    358.16829    34042          426 
 3047000    282.85854   -59.366223    334.79662    34014          398 
 3048000    274.35336   -49.214746    320.54383    34007          391 
 3049000    289.46623   -45.963661    347.29694    34018          402 
 3050000    315.82751   -49.814325    415.99087    34058          442 
 3051000    280.26271    -55.80398    375.91016    34065          449 
 3052000    287.27458   -55.650053    345.15299    34018          402 
 3053000    291.15027   -52.471387    373.15312    34046          430 
 3054000    286.80781   -57.088656    365.18712    34042          426 
 3055000    298.22022   -67.917793    389.57652    34054          438 
 3056000    290.53083   -61.130534    363.88314    34035          419 
 3057000    295.63928   -64.180505     370.9955    34037          421 
 3058000    297.86821   -62.780261    376.01293    34040          424 
 3059000    303.21768   -62.993743    356.45529    34011          395 
 3060000    319.84562   -53.438605    406.48245    34041          425 
 3061000    305.89684   -57.595759    372.98059    34025          409 
 3062000    282.38773   -59.663156    357.56393    34040          424 
 3063000    282.82682   -57.479446    339.17299    34019          403 
 3064000    300.23758   -57.650571    377.73568    34038          422 
 3065000    283.18105   -56.672224    346.25526    34026          410 
 3066000    281.02328   -61.666928    340.29983    34023          407 
 3067000    297.31832   -66.645134    373.11816    34037          421 
 3068000    291.36966   -51.402241    341.98114    34010          394 
 3069000    281.49407   -56.270303     331.5471    34012          396 
 3070000    280.94797   -58.321718    367.30004    34055          439 
 3071000    277.07152   -50.978166    357.24511    34049          433 
 3072000    315.43703    -56.26094    415.40808    34057          441 
 3073000    286.47468   -54.827606    365.91908    34045          429 
 3074000    303.81346   -58.659677    391.41248    34049          433 
 3075000    285.77095   -52.341694    355.51064    34034          418 
 3076000     255.5719    -53.78169    330.29737    34050          434 
 3077000    293.12684   -53.339878    366.98226    34036          420 
 3078000    287.25693   -51.819088    342.61592    34017          401 
 3079000    297.14072   -50.331335    362.66248    34026          410 
 3080000    310.18459   -48.465373    348.28053    33992          376 
 3081000    293.72269   -41.511163     341.1214    34006          390 
 3082000    293.17152   -50.793072    365.07121    34033          417 
 3083000    316.09042   -50.665483    378.02315    34018          402 
 3084000    288.28049   -42.894055     348.9053    34022          406 
 3085000    291.60601   -49.065799    341.94636    34007          391 
 3086000    303.86492   -53.409087    368.73435    34024          408 
 3087000    263.18698   -53.538392    339.50321    34049          433 
 3088000    306.33171    -50.01135    382.40765    34035          419 
 3089000    282.46595   -54.531069    333.43067    34012          396 
 3090000    269.86058   -54.548054    329.52465    34026          410 
 3091000     300.3275   -59.420553    359.07404    34018          402 
 3092000    296.15069   -54.421513    330.65269    33991          375 
 3093000    314.55155   -51.422306     370.7558    34011          395 
 3094000    303.08485   -55.040655    355.29268    34009          393 
 3095000    291.44335    -57.52086    398.58141    34075          459 
 3096000    311.44198   -55.296666    422.03569    34071          455 
 3097000    287.65069    -60.89501    387.10097    34068          452 
 3098000     285.9703   -64.747699    370.17516    34051          435 
 3099000    299.71613   -61.207393    367.40365    34028          412 
 3100000    274.65357   -59.918207    370.12449    34068          452 
 3101000     277.2134   -63.907614    341.49076    34029          413 
 3102000    308.33056   -51.847613    397.60477    34048          432 
 3103000    302.16734   -51.484511    379.21635    34037          421 
 3104000    316.10679   -54.100848    387.02883    34027          411 
 3105000    300.54154   -46.895919    351.19146    34009          393 
 3106000    297.66063   -39.925289     364.4193    34027          411 
 3107000    269.05998    -54.42735    326.90122    34022          406 
 3108000     298.0847   -52.212237     361.2243    34022          406 
 3109000     294.4408   -56.441058    356.10631    34022          406 
 3110000    287.75707   -58.179422    351.12668    34025          409 
 3111000    305.74382    -63.59241    387.70428    34041          425 
 3112000    295.46989   -60.075011    368.24032    34035          419 
 3113000    283.23375   -52.504726    342.51144    34020          404 
 3114000    318.45503   -52.751868     414.4917    34053          437 
 3115000     297.6174   -53.905937    399.40374    34067          451 
 3116000    290.16718   -48.713593    354.00677    34026          410 
 3117000    296.11445   -46.520047    356.57316    34020          404 
 3118000    283.09994   -46.785321    346.12992    34026          410 
 3119000    290.18009   -66.379561    357.40038    34030          414 
 3120000    297.06088   -68.178349     397.1683    34064          448 
 3121000    298.84164   -63.206532    369.21378    34031          415 
 3122000    284.93151   -52.306155    356.52245    34036          420 
 3123000    273.84864   -52.852675    352.48733    34047          431 
 3124000    304.50462   -55.568615    382.65311    34038          422 
 3125000     300.0388    -60.68951    373.76032    34034          418 
 3126000    275.14252   -65.090939     357.2264    34052          436 
 3127000    307.61009   -62.460948    383.54871    34035          419 
 3128000    294.82286   -69.084813    387.97564    34057          441 
 3129000    274.13618   -63.235162    354.51026    34050          434 
 3130000    285.98302   -62.439247    350.44556    34027          411 
 3131000    309.23353   -68.193733    404.79088    34054          438 
 3132000    280.65741   -60.945945     330.8833    34010          394 
 3133000      307.388   -63.676171    401.29556    34054          438 
 3134000    295.99872   -53.948365    373.64625    34039          423 
 3135000     289.2208   -58.259072    348.77989    34021          405 
 3136000    297.03748   -58.048826    342.63526    34003          387 
 3137000    304.10181    -54.36639    376.52557    34032          416 
 3138000    289.88118   -59.377488    331.91434    34001          385 
 3139000     276.9613   -51.884268    311.30654    33994          378 
 3140000    303.25218   -57.622786     359.5439    34013          397 
 3141000    277.89445   -58.469801    344.89325    34031          415 
 3142000     296.3931   -55.711627    370.40689    34035          419 
 3143000    283.61432   -52.861476    354.32699    34036          420 
 3144000    294.39115   -59.155423     364.0936    34031          415 
 3145000    290.68814   -55.273757    377.36078    34050          434 
 3146000    298.56442   -67.233266    377.90243    34039          423 
 3147000     289.8044   -61.886804    353.90703    34026          410 
 3148000    291.36712   -60.913504    361.61388    34033          417 
 3149000    295.05211   -56.876441    364.48609    34031          415 
 3150000    298.23438   -56.601415    346.61885    34006          390 
 3151000    290.12201   -47.123976    350.98579    34020          404 
 3152000     304.9223   -53.548964    352.59572    34004          388 
 3153000    294.02654   -63.805587    353.24478    34019          403 
 3154000    309.59725   -56.907066    384.97619    34031          415 
 3155000    299.27645   -60.819245    369.17465    34028          412 
 3156000    303.89049   -57.595454    342.70839    33995          379 
 3157000    310.20881   -58.232224    404.94617    34054          438 
 3158000    289.96842   -61.909198     377.2768    34053          437 
 3159000    282.52965   -59.657248    365.72604    34050          434 
 3160000    266.72985    -63.68404    360.87823    34068          452 
 3161000    315.31803   -60.925162     397.7399    34039          423 
 3162000    292.56037   -56.769709    366.08627    34035          419 
 3163000    272.74561   -54.334571     330.3355    34021          405 
 3164000    311.24358   -61.342555    386.57242    34033          417 
 3165000    289.71543   -60.021935    367.24596    34041          425 
 3166000    296.34604   -70.657414    354.58815    34018          402 
 3167000    300.82793   -62.831695     382.3104    34043          427 
 3168000    281.74062   -63.637793    352.00592    34035          419 
 3169000    290.69641   -68.067656     356.2324    34028          412 
 3170000    301.77728   -63.987625    340.84163    33994          378 
 3171000    305.48163   -64.242038    409.38901    34066          450 
 3172000    282.10653   -68.630885    361.24495    34045          429 
 3173000    292.06648   -65.127462    365.55591    34036          420 
 3174000    294.53453   -64.955921    391.35423    34062          446 
 3175000    298.61228   -74.444346    403.56253    34069          453 
 3176000    291.80975   -61.780327     368.3696    34040          424 
 3177000    293.59976   -62.654447    366.72902    34036          420 
 3178000    291.62888   -58.523855    359.08152    34030          414 
 3179000    302.30335   -57.663185    357.02341    34013          397 
 3180000    279.40797   -67.252203    362.54226    34051          435 
 3181000     304.4058   -65.475251    420.92858    34079          463 
 3182000    294.97184    -70.53446    371.75323    34036          420 
 3183000    297.66033   -63.928685    361.53122    34024          408 
 3184000    288.49502   -57.552727    350.41781    34024          408 
 3185000    303.11047   -59.424548    370.15743    34025          409 
 3186000    285.53001   -59.405702    360.81123    34040          424 
 3187000    275.25022   -48.481132    350.38291    34043          427 
 3188000    280.19487   -57.535842    335.46811    34016          400 
 3189000    294.47286    -59.40249    358.44191    34025          409 
 3190000    294.99105   -49.832155     357.4364    34023          407 
 3191000    295.45639   -50.400582    378.00952    34045          429 
 3192000    296.99355   -58.401041    360.54216    34024          408 
 3193000    273.15566   -60.946412    352.59392    34048          432 
 3194000    280.20406   -65.338104    369.34587    34057          441 
 3195000    279.13386   -58.726849    351.50584    34039          423 
 3196000    301.56072   -70.550745    393.29591    34053          437 
 3197000    293.20208   -64.520748    366.76929    34035          419 
 3198000    293.38542   -63.529668    410.50057    34083          467 
 3199000    300.89141   -61.632025    395.58715    34057          441 
 3200000    267.32239   -57.467379    359.98669    34068          452 
 3201000    312.70411   -56.861092    366.91443    34010          394 
 3202000    301.94718   -58.423375    375.92452    34034          418 
 3203000    288.14451    -53.34852    341.39962    34014          398 
 3204000     318.2992   -53.838355    385.99223    34023          407 
 3205000    278.22389     -51.7676    319.75217    34002          386 
 3206000    291.54226   -53.272064    357.59956    34024          408 
 3207000    296.53002    -54.52114    349.33473    34012          396 
 3208000    281.96911   -53.073458    323.84993    34002          386 
 3209000     273.3997   -46.768725    335.47129    34027          411 
 3210000    298.85228   -46.345624    369.14469    34031          415 
 3211000    318.04345   -50.074485    383.13358    34019          403 
 3212000    297.76138   -51.332857    349.05751    34010          394 
 3213000     280.7893   -55.263825    345.79517    34030          414 
 3214000    296.67931   -52.157707    364.92237    34029          413 
 3215000    299.35239   -54.285823    371.84454    34033          417 
 3216000    316.75456   -56.011112    399.87632    34040          424 
 3217000     305.8127   -58.075863    412.00367    34068          452 
 3218000    286.59144   -50.604008    358.08848    34036          420 
 3219000    284.19831   -45.917137    346.13864    34025          409 
 3220000     284.7926   -48.146184    335.94376    34012          396 
 3221000    286.35519   -46.586363    335.16818    34009          393 
 3222000     296.3706   -54.760126    329.62063    33990          374 
 3223000    308.31985   -49.961632     394.5859    34046          430 
 3224000    311.96431   -50.376665    410.74191    34057          441 
 3225000    288.39039   -53.321125    364.08782    34040          424 
 3226000     305.7853   -55.951566    353.21613    34004          388 
 3227000    297.39118   -53.456658      342.724    34003          387 
 3228000    292.68409   -55.150484    390.23348    34064          448 
 3229000    267.90032   -64.767022     342.1444    34044          428 
 3230000    285.52244   -60.747926    364.41322    34045          429 
 3231000    301.33378   -62.297695     371.0612    34029          413 
 3232000    295.31849   -57.349128    385.25949    34053          437 
 3233000    289.14013   -56.142683    343.96791    34015          399 
 3234000    302.92726   -55.656543    360.51173    34015          399 
 3235000    270.46229   -54.611883    321.00081    34014          398 
 3236000    286.03636    -43.24316    336.25131    34011          395 
 3237000     308.2303   -58.216744    399.83389    34052          436 
 3238000    299.34371   -57.350712    373.21232    34035          419 
 3239000    287.04455    -59.15987    383.79028    34065          449 
 3240000    287.23629   -59.062781     368.4982    34047          431 
 3241000    287.91679    -56.08156    363.51054    34040          424 
 3242000    302.95763   -58.530209    395.66424    34055          439 
 3243000     283.0654   -63.376587    346.36035    34027          411 
 3244000     287.0845   -64.599017     365.7652    34044          428 
 3245000    291.41942   -58.796334    371.18725    34043          427 
 3246000    298.56779   -62.929777    364.39155    34025          409 
 3247000    293.02067   -53.009319    356.92922    34025          409 
 3248000    296.68705   -56.839508    352.05875    34013          397 
 3249000    304.86099   -54.464428    369.80845    34023          407 
 3250000    275.86552   -57.152269    334.83415    34024          408 
 3251000    306.37508   -54.931546    392.02318    34045          429 
 3252000    298.99067    -47.04306    346.50556    34004          388 
 3253000    293.79668   -57.620204    394.52978    34066          450 
 3254000    296.07566   -56.513073    384.88472    34053          437 
 3255000    308.26401   -53.075751    383.05532    34033          417 
 3256000    308.59224   -49.881008     386.5112    34037          421 
 3257000    284.32533   -58.893565    351.12488    34030          414 
 3258000    305.29253   -56.086649     388.9299    34044          428 
 3259000    286.90957   -56.720824    364.58564    34040          424 
 3260000    300.62478   -57.670234    394.54561    34056          440 
 3261000    281.44535   -57.825582     350.1219    34033          417 
 3262000    311.18471    -57.57232    362.55642    34005          389 
 3263000    285.57573   -53.021958    345.43167    34022          406 
 3264000    287.16292    -60.68538    337.44596    34010          394 
 3265000    307.41682    -48.87428    387.64346    34040          424 
 3266000    299.29413   -62.689739    384.95259    34048          432 
 3267000    302.87946   -49.845198    373.10629    34030          414 
 3268000    303.34863   -55.151661    372.92246    34029          413 
 3269000     300.3801   -56.868769    373.93772    34034          418 
 3270000     293.4352   -54.351446    386.83306    34059          443 
 3271000    303.24087   -58.115059    375.17755    34031          415 
 3272000    291.98609   -57.785217    346.80773    34015          399 
 3273000    322.94807   -48.621932    354.27051    33983          367 
 3274000    296.59466   -54.049295    379.91182    34046          430 
 3275000    288.75427   -55.384452    373.44281    34050          434 
 3276000    288.22796   -54.277199    365.58767    34042          426 
 3277000     296.0946   -58.137001    386.09379    34053          437 
 3278000    291.70006   -63.584811    382.30919    34054          438 
 3279000     284.6454   -69.630167    368.62174    34050          434 
 3280000     278.2389    -58.35393    328.84539    34013          397 
 3281000    291.83572    -56.17529     353.4412    34023          407 
 3282000    277.65194   -66.326545    378.30726    34073          457 
 3283000    301.33286   -63.483786    394.53242    34055          439 
 3284000    281.60838    -62.39511    366.80395    34051          435 
 3285000    290.29355   -68.399519    384.29777    34060          444 
 3286000    329.21484   -62.894718    407.32502    34031          415 
 3287000    285.46853   -58.171294    360.22571    34040          424 
 3288000    298.23083   -58.285861    377.70936    34041          425 
 3289000    295.71621   -55.428563    377.36825    34044          428 
 3290000    299.68085   -64.236655    348.54464    34007          391 
 3291000    300.90657   -63.556624    360.32664    34018          402 
 3292000    294.15511   -61.439232    375.99833    34045          429 
 3293000    294.88315   -65.537709    356.85342    34022          406 
 3294000    286.76323   -57.053417    385.17061    34065          449 
 3295000    282.41958   -58.139866    359.47636    34043          427 
 3296000    291.82807   -54.839994    325.09155    33990          374 
 3297000     272.0291   -52.827694    294.05659    33979          363 
 3298000    305.90021   -48.719614    368.04897    34017          401 
 3299000    287.77326   -50.701149    334.05572    34005          389 
 3300000    308.70141   -53.272008    364.52509    34013          397 
 3301000    285.15364   -62.523526    362.73839    34043          427 
 3302000    284.49163    -69.27439    361.32899    34042          426 
 3303000    276.44543   -62.333487    359.29591    34053          437 
 3304000    305.32357   -58.629876    395.36227    34051          435 
 3305000     315.4885   -68.354739    390.66165    34031          415 
 3306000     277.6991   -60.635598    342.35647    34029          413 
 3307000    291.15618   -55.524378    341.48737    34010          394 
 3308000    302.53984   -50.276453    358.50897    34014          398 
 3309000    296.57683     -51.9137     354.8932    34018          402 
 3310000     298.5165   -64.090243    364.94395    34026          410 
 3311000    308.46524   -54.216879    386.62291    34037          421 
 3312000     294.8155   -50.001529    343.11955    34006          390 
 3313000    304.75241   -57.263312    351.91027    34004          388 
 3314000    278.64582    -60.42629    336.51173    34021          405 
 3315000    286.11202    -58.36098    351.60436    34027          411 
 3316000    294.89365   -58.615213    387.63659    34056          440 
 3317000    300.13763   -65.944831    394.98032    34058          442 
 3318000    291.62825   -59.925075    366.58688    34038          422 
 3319000    302.62354   -59.583256     367.2472    34023          407 
 3320000    293.25894   -56.921432    358.90207    34027          411 
 3321000    282.79339   -62.641734    384.61793    34071          455 
 3322000    300.77103   -66.365508    389.37691    34051          435 
 3323000    307.20807   -56.197846    394.27508    34047          431 
 3324000    309.02504   -55.229552    378.69585    34027          411 
 3325000    279.20181   -42.976308    328.25173    34011          395 
 3326000    304.03393   -47.468009    372.28017    34027          411 
 3327000     311.1469   -47.660536    373.51094    34019          403 
 3328000    299.46793   -51.633498    348.27085    34007          391 
 3329000     268.3221   -50.045352    326.59009    34025          409 
 3330000    299.53213   -53.555112    365.72118    34026          410 
 3331000    304.11751   -49.242397    387.47256    34044          428 
 3332000    282.23091   -61.994648    327.42283    34006          390 
 3333000     290.2518   -60.297975     375.1477    34050          434 
 3334000    299.15742   -55.295218    387.62459    34051          435 
 3335000    309.10309    -56.17815    353.77797    33999          383 
 3336000    279.11524   -59.961138     351.1828    34038          422 
 3337000     294.8126   -56.792647    364.14147    34030          414 
 3338000    284.33234   -56.503409    371.88329    34055          439 
 3339000    316.72096   -59.653894     372.5335    34011          395 
 3340000    296.51303   -62.268924    367.40001    34032          416 
 3341000    291.77602   -62.409183    356.80879    34027          411 
 3342000     272.6459   -63.901039    343.22659    34038          422 
 3343000    284.83454   -57.330789    349.27772    34027          411 
 3344000    300.62999   -71.377542    378.40136    34039          423 
 3345000    283.95787   -68.378222    375.58908    34060          444 
 3346000    291.59293   -69.902202    389.97737    34065          449 
 3347000    303.35238   -72.809278    402.17117    34061          445 
 3348000    288.12775   -64.602111    381.33907    34060          444 
 3349000    313.86206   -65.091819     398.3737    34041          425 
 3350000    300.85522   -66.827548    393.13888    34054          438 
 3351000    299.95951   -68.368228    403.66511    34068          452 
 3352000    307.00147   -66.005562    395.65721    34047          431 
 3353000    274.70803   -59.348023    368.79961    34065          449 
 3354000    302.45286   -61.778892    410.56097    34072          456 
 3355000      305.246   -63.948648    409.46797    34066          450 
 3356000    287.03181   -62.646598    378.58361    34058          442 
 3357000    277.80575   -62.282997    354.12778    34044          428 
 3358000    306.44719   -52.173193     354.6262    34004          388 
 3359000     302.1902   -54.785783    382.38014    34041          425 
 3360000    286.73969   -58.830393    378.04532    34059          443 
 3361000    304.23769   -56.570237    390.18227    34047          431 
 3362000    288.59214   -63.353692    365.77383    34042          426 
 3363000    284.62344   -63.825989    339.80128    34017          401 
 3364000    302.69499   -59.765586    384.71928    34043          427 
 3365000    283.04342   -69.036144    370.69137    34055          439 
 3366000    276.35075   -65.483434    358.70813    34052          436 
 3367000    281.44708   -57.033029    370.04662    34057          441 
 3368000    285.56208   -66.377489    386.47364    34069          453 
 3369000    279.03692   -57.716777    345.08173    34030          414 
 3370000    284.45372   -61.127652    364.77761    34047          431 
 3371000    298.35333   -60.466117    362.63537    34024          408 
 3372000     291.5357   -67.914721    367.15697    34039          423 
 3373000     303.7865   -64.724072    399.89922    34058          442 
 3374000    303.63339   -62.702571    394.32891    34052          436 
 3375000    284.79936   -69.200124    359.39882    34040          424 
 3376000    300.30242   -59.956886    387.29725    34048          432 
 3377000    282.28099   -55.031434    347.85617    34029          413 
 3378000    271.94576   -57.510225    323.59868    34016          400 
 3379000    297.39857   -57.197008    394.54725    34062          446 
 3380000     301.2591   -62.946202    393.63199    34055          439 
 3381000    302.49263   -51.484583    356.14924    34010          394 
 3382000    298.82149   -61.939721    368.23582    34030          414 
 3383000    290.89042   -57.085051    325.44378    33992          376 
 3384000    265.99476   -62.974968    329.48817    34032          416 
 3385000    309.28905   -57.064199    406.89505    34058          442 
 3386000    293.45806   -56.612228    385.46305    34057          441 
 3387000    284.91429   -48.655919    371.78366    34052          436 
 3388000    289.14776   -50.079694    374.79215    34049          433 
 3389000    297.35506   -60.558495    344.42864    34005          389 
 3390000     296.0242   -61.955438    369.36525    34034          418 
 3391000    300.39969   -63.783487    385.38321    34047          431 
 3392000    273.42525   -61.655521    358.20807    34055          439 
 3393000    297.21809   -64.763421    382.07757    34047          431 
 3394000    282.39082    -52.68697    330.56524    34009          393 
 3395000    292.32546   -55.189011    374.27449    34043          427 
 3396000    295.58771   -66.539139    358.40373    34023          407 
 3397000    304.37227   -56.447072    373.52254    34028          412 
 3398000    272.74744   -52.091066     315.9917    34002          386 
 3399000    286.54526   -57.828785    360.25509    34038          422 
 3400000    292.46152    -51.15395    351.16027    34019          403 
 3401000    289.02499   -53.247191    359.05298    34030          414 
 3402000    268.91429   -57.630303    328.59056    34023          407 
 3403000    296.22579    -57.55389    367.71466    34033          417 
 3404000      291.433   -61.288727    383.14703    34054          438 
 3405000    286.66533   -61.386053    382.99151    34064          448 
 3406000    286.19388   -55.734296    365.68327    34045          429 
 3407000    315.10003     -54.7254    398.47569    34041          425 
 3408000    302.67181   -57.642266    369.18255    34026          410 
 3409000    283.64093   -62.309027    362.04161    34045          429 
 3410000    282.56265   -64.180665    350.92681    34033          417 
 3411000    314.44689    -50.95536    365.91737    34007          391 
 3412000    290.35487   -52.932311    353.96407    34024          408 
 3413000     304.2285   -49.643228    392.09005    34049          433 
 3414000    306.82284   -58.121478     411.4248    34066          450 
 3415000    299.81286    -54.64875    368.70574    34029          413 
 3416000    292.10925   -54.643606    373.16786    34045          429 
 3417000     294.1852   -60.487834    340.18661    34002          386 
 3418000    309.80608   -53.909843    386.82952    34035          419 
 3419000    305.65024   -56.166973    379.55107    34033          417 
 3420000     308.2185   -62.482838    392.14248    34042          426 
 3421000    292.02243   -63.438713    382.21496    34056          440 
 3422000    310.48472   -56.305501    370.09477    34015          399 
 3423000    292.04189   -53.071542    339.42734    34006          390 
 3424000    288.63858   -51.661986    376.18498    34054          438 
 3425000    287.27022   -52.618836    346.96535    34022          406 
 3426000    317.47982    -56.51754    396.71152    34036          420 
 3427000    284.98561   -45.405017    369.60858    34052          436 
 3428000    291.57371   -48.379649    360.20739    34031          415 
 3429000    279.76221   -58.756138    357.22241    34045          429 
 3430000     279.4267   -63.398823    346.43931    34031          415 
 3431000    290.26757   -63.612506    346.45438    34017          401 
 3432000    299.98017   -58.388262     378.0284    34039          423 
 3433000    305.54207   -62.114322    395.36916    34049          433 
 3434000    294.75602   -61.904579    361.11793    34028          412 
 3435000     302.7853   -70.160367    409.04361    34070          454 
 3436000    289.31679   -65.301479    380.69245    34056          440 
 3437000     284.7423   -72.798353    397.54955    34084          468 
 3438000    283.50326   -64.129321     365.6023    34049          433 
 3439000    295.59488   -62.147039    343.81925    34007          391 
 3440000    303.19112   -59.221589    348.55287    34001          385 
 3441000     289.3279   -63.894878    338.28682    34008          392 
 3442000    301.04554   -59.847876    376.97404    34036          420 
 3443000    298.94614   -62.058264    352.02842    34011          395 
 3444000    294.27064   -57.329243    359.89678    34027          411 
 3445000    286.32825   -55.529384    344.48901    34018          402 
 3446000    289.94714   -48.269214    332.57886    34001          385 
 3447000    319.11892   -58.103427      430.068    34069          453 
 3448000    300.89088   -53.015309    366.88432    34026          410 
 3449000    301.03785   -54.055631    364.03607    34022          406 
 3450000    298.71279    -44.57209    364.06419    34024          408 
 3451000    272.59099    -51.49547    332.07633    34025          409 
 3452000    291.72109   -48.399781      350.996    34020          404 
 3453000     312.8405   -57.615111    371.98026    34015          399 
 3454000    280.74608   -49.209047    338.95317    34021          405 
 3455000    313.05922   -47.078075    391.18838    34036          420 
 3456000    284.18727   -55.895144    364.82719    34047          431 
 3457000    311.55995   -57.235918    389.77578    34036          420 
 3458000    289.18384   -66.547102    372.21738    34048          432 
 3459000     287.9533    -48.34874    354.71722    34030          414 
 3460000    277.57082   -55.793011    361.21241    34053          437 
 3461000    301.34511   -53.578964    349.72416    34006          390 
 3462000    292.20924   -50.757872    353.28812    34022          406 
 3463000    294.91542   -60.180639    347.04093    34010          394 
 3464000    279.46814   -55.876911    336.65175    34021          405 
 3465000    291.68339   -55.619745    348.19769    34016          400 
 3466000     294.5049   -53.425676    367.42493    34033          417 
 3467000    298.04543   -54.112181     367.1059    34029          413 
 3468000     273.8617   -58.517153    347.00321    34041          425 
 3469000    282.55286   -45.588803    339.92746    34019          403 
 3470000    293.27801    -49.57655    355.85815    34024          408 
 3471000    298.58743   -56.546524    380.15889    34044          428 
 3472000     285.7454   -55.946474    363.08682    34043          427 
 3473000    292.02441   -57.943196     375.2674    34048          432 
 3474000     294.1532   -54.238147    357.38498    34024          408 
 3475000    297.43125   -57.696314    401.16933    34067          451 
 3476000     267.9795   -56.645847    348.82628    34053          437 
 3477000    297.15458   -65.533674    379.59731    34044          428 
 3478000    292.85934   -66.375944     375.8854    34047          431 
 3479000    288.99067    -60.87272    370.53867    34047          431 
 3480000    282.38821   -59.528566    343.48504    34025          409 
 3481000    295.14574   -63.738633    364.73877    34030          414 
 3482000    291.23199   -49.981966    372.71484    34046          430 
 3483000    273.04235   -46.843204    358.95775    34057          441 
 3484000    298.95688    -56.75925    355.51121    34014          398 
 3485000    307.91066   -59.805515    380.14647    34031          415 
 3486000     283.7253   -53.446091    322.16964    33997          381 
 3487000    284.87641   -47.551322     345.7268    34023          407 
 3488000    270.53003   -54.593706    329.63854    34025          409 
 3489000    286.12174    -52.93454    358.85708    34037          421 
 3490000    313.37321   -62.315074     415.2045    34061          445 
 3491000    291.91729   -62.382624    413.39213    34090          474 
 3492000    303.09467   -63.000715     426.2646    34088          472 
 3493000    285.98362   -68.991301    403.90793    34089          473 
 3494000    291.27053   -64.067857    378.49678    34048          432 
 3495000    292.38381   -54.342722    358.59332    34028          412 
 3496000    297.06448   -59.577769    358.99405    34021          405 
 3497000    296.14691   -54.296655    341.97714    34003          387 
 3498000    286.67728   -55.593067    320.63546    33991          375 
 3499000    294.55106   -53.611117    365.33174    34032          416 
 3500000    284.46545   -57.428645    356.18289    34036          420 
 3501000    280.39035   -61.598965    353.16819    34039          423 
 3502000    293.67357   -56.801373    377.39737    34048          432 
 3503000    294.84891   -47.024996    354.10191    34019          403 
 3504000    299.13538   -43.559712    355.80695    34015          399 
 3505000     275.6184   -46.524283     340.8987    34031          415 
 3506000    290.88689   -51.147131    343.65191    34013          397 
 3507000    290.02303   -40.052715    338.55634    34008          392 
 3508000    296.78981   -50.702159    347.84643    34007          391 
 3509000    299.89123   -48.451783    371.79884    34032          416 
 3510000    300.57026   -51.062714    341.98234    33996          380 
 3511000    300.39126   -54.776622    373.72348    34034          418 
 3512000    275.42434   -65.369712    354.68627    34049          433 
 3513000    307.71156   -61.331173    426.14412    34081          465 
 3514000    297.18117   -60.914382    399.34587    34065          449 
 3515000    290.26267   -52.292106    358.04577    34030          414 
 3516000    279.51966   -59.826893    333.68328    34017          401 
 3517000    293.92866   -57.380997    356.52455    34022          406 
 3518000     296.9508   -62.120373    338.70832    33999          383 
 3519000    269.35022   -55.131617    328.88598    34026          410 
 3520000    291.51618   -56.342438    355.64511    34026          410 
 3521000    297.55771   -54.689559    387.48104    34052          436 
 3522000    273.31747   -57.669185    353.29978    34050          434 
 3523000    308.39996   -62.388253    393.12913    34044          428 
 3524000    280.69192   -60.015084    358.55207    34044          428 
 3525000    305.95742   -59.708644    378.20045    34031          415 
 3526000    290.74697   -63.568251    362.27311    34035          419 
 3527000    299.18549   -61.945509    356.34097    34016          400 
 3528000    277.38734   -65.821522    352.29285    34043          427 
 3529000    304.02208   -67.079413    381.17388    34037          421 
 3530000    289.62694   -77.236791    365.88813    34040          424 
 3531000    294.12515   -66.760547    378.35767    34048          432 
 3532000    285.31106   -57.314908    335.18791    34011          395 
 3533000    301.44213   -69.783553    398.53944    34060          444 
 3534000    309.99355   -62.196057    374.18436    34021          405 
 3535000    282.04244   -61.984024    345.65678    34027          411 
 3536000    290.56793   -61.687702    352.41559    34023          407 
 3537000    321.19639   -56.131909    408.06542    34042          426 
 3538000    291.24425   -59.141997    364.65269    34037          421 
 3539000    280.09554   -65.546364    368.57003    34058          442 
 3540000    293.59586    -59.94781     343.2127    34009          393 
 3541000    280.14778   -52.271361     323.0013    34002          386 
 3542000     303.9647   -61.102098     383.1273    34039          423 
 3543000     323.5787   -62.084693    384.41099    34015          399 
 3544000    294.65018   -59.955073    365.63833    34033          417 
 3545000    292.60567   -59.798406    367.86867    34035          419 
 3546000    286.41708    -57.95529    367.65625    34047          431 
 3547000    285.64994   -58.434926    372.02449    34053          437 
 3548000    284.24456   -56.077275    367.66864    34049          433 
 3549000    271.87198   -64.521005    350.53134    34049          433 
 3550000    298.07516   -59.478953    399.06598    34065          449 
 3551000    315.55164   -60.731828    410.42162    34053          437 
 3552000    283.64498   -57.370192    372.41124    34056          440 
 3553000    286.30868   -54.702965    342.13275    34016          400 
 3554000    289.08169   -58.127195    354.18442    34027          411 
 3555000    300.52041   -63.393746    372.12193    34032          416 
 3556000     293.2455   -58.173911    357.57055    34025          409 
 3557000    289.68569   -50.168048    373.56758    34049          433 
 3558000    293.99628   -60.461772    387.94552    34059          443 
 3559000    294.12089   -65.983248    405.40254    34079          463 
 3560000    280.62792   -71.229056    373.40737    34063          447 
 3561000    303.10831   -68.677914    389.95625    34048          432 
 3562000    293.95187     -66.0162    388.41193    34060          444 
 3563000     289.6338   -66.221479    376.62238    34052          436 
 3564000    285.47554   -68.590295    349.05586    34027          411 
 3565000    301.44858   -60.755104    417.15983    34081          465 
 3566000    309.14428   -50.514725     402.1185    34053          437 
 3567000    294.04589   -62.822886    352.52129    34019          403 
 3568000    299.55995    -68.13425    383.97444    34045          429 
 3569000    300.07724   -64.156687    390.37374    34053          437 
 3570000    279.66801   -64.952188    365.51008    34053          437 
 3571000    290.62634   -63.053228    389.46016    34063          447 
 3572000    297.72431   -69.734341    404.36304    34070          454 
 3573000    287.23989   -59.927316    401.51289    34084          468 
 3574000    313.89205   -64.415939    412.27627    34057          441 
 3575000     299.8391   -65.449158    387.79992    34050          434 
 3576000    285.03779   -58.594053    362.10191    34043          427 
 3577000    310.52272   -54.800954    376.52275    34022          406 
 3578000    278.83698     -46.3547     305.2239    33984          368 
 3579000    310.30409   -53.559505    365.91904    34012          396 
 3580000    291.41429   -53.202912    362.31751    34034          418 
 3581000    298.83334   -61.018545    385.44831    34047          431 
 3582000    312.79127   -58.484011    389.33427    34032          416 
 3583000    278.26703   -54.546514    347.01466    34033          417 
 3584000    288.78964   -50.939985    344.78489    34016          400 
 3585000    309.79343   -53.881837    378.34103    34026          410 
 3586000    303.32597   -49.305465    379.20399    34035          419 
 3587000    280.75281   -60.668407    315.57093    33993          377 
 3588000    288.54365   -51.011536    363.73838    34039          423 
 3589000    299.12728   -59.368716    334.08658    33991          375 
 3590000    271.83954   -69.156177    353.80296    34053          437 
 3591000    281.41628   -64.780186    352.70449    34036          420 
 3592000    258.58958   -62.654144    368.73085    34094          478 
 3593000    287.96723   -74.603721    407.58389    34091          475 
 3594000    293.65758   -59.077871    410.34379    34085          469 
 3595000    289.64706   -68.816352    383.18963    34059          443 
 3596000    271.83722    -62.20948    365.80732    34068          452 
 3597000    308.48584    -64.58648    383.20842    34033          417 
 3598000    288.65875   -60.575568    355.76473    34029          413 
 3599000    283.17622   -60.092835    357.51682    34040          424 
 3600000    296.85588   -64.551305    368.86399    34033          417 
 3601000    292.56888   -49.925301    344.60139    34012          396 
 3602000    308.62138   -62.034413    380.85588    34030          414 
 3603000    292.48364   -64.866972    346.08193    34013          397 
 3604000    317.58493   -77.947758    384.48664    34020          404 
 3605000    297.14465    -75.55989    400.22384    34067          451 
 3606000    286.73128   -72.790947    374.42729    34055          439 
 3607000    268.32031   -70.595776    358.91159    34065          449 
 3608000    286.89638   -71.318267    374.08917    34054          438 
 3609000     301.5012   -73.662331    400.52188    34061          445 
 3610000    286.12533   -62.363586    355.22719    34032          416 
 3611000    307.76157   -56.279407    380.53823    34030          414 
 3612000    305.70178   -62.917724    377.81035    34030          414 
 3613000    284.15641   -59.430994    345.10038    34024          408 
 3614000    293.08981   -71.987346    344.70581    34010          394 
 3615000    284.44929   -59.736681    349.64965    34029          413 
 3616000    277.09119   -71.300801    365.48413    34058          442 
 3617000    282.01525   -62.380886    353.51792    34037          421 
 3618000    272.16227   -61.623261    353.94131    34053          437 
 3619000    285.60487   -52.376185    362.69037    34042          426 
 3620000    304.99252   -58.764518    383.72501    34037          421 
 3621000    284.35521   -58.024114    340.46342    34017          401 
 3622000    280.58245   -59.361716    364.36993    34050          434 
 3623000    278.41459   -62.470857    350.07016    34038          422 
 3624000    299.14013    -63.44936    363.79677    34024          408 
 3625000    307.95367   -61.900062    412.50107    34065          449 
 3626000    297.79003   -63.333663    353.71428    34015          399 
 3627000    314.76913   -58.732754    381.26838    34023          407 
 3628000    288.34292   -60.142539    375.64638    34053          437 
 3629000    291.34046     -55.9486    399.94237    34077          461 
 3630000    284.88986   -64.027938    366.63681    34048          432 
 3631000    304.22598   -60.575843    403.51162    34061          445 
 3632000    286.19199   -67.229308    370.82994    34051          435 
 3633000    289.09736    -54.92283    341.70583    34012          396 
 3634000     306.8541   -55.908751    363.01122    34013          397 
 3635000    311.42085   -44.058088    365.65732    34010          394 
 3636000    299.28137   -43.491708     360.3098    34020          404 
 3637000    263.36431   -54.205278    322.46552    34027          411 
 3638000    299.38447   -56.931378    388.93977    34051          435 
 3639000    276.18878    -54.43234    345.98571    34037          421 
 3640000    295.09435   -54.090979    376.16402    34044          428 
 3641000    305.71887   -57.610904    347.84819    33998          382 
 3642000    305.14799   -62.356785    387.66892    34043          427 
 3643000    294.96169   -48.055543    355.52207    34021          405 
 3644000    287.75277    -51.06435    346.90166    34020          404 
 3645000    277.76621   -48.035584     315.2152    33996          380 
 3646000    281.23922   -59.584318     360.0979    34046          430 
 3647000    311.27139   -53.941334    369.28465    34014          398 
 3648000    283.35044   -60.872418    337.55613    34015          399 
 3649000     262.7692   -54.394466    320.51318    34025          409 
 3650000    301.96868   -60.801441    354.99594    34011          395 
 3651000    291.24977   -53.369462    346.77349    34015          399 
 3652000    284.37877   -61.797309     358.5098    34037          421 
 3653000    286.23618   -65.072354     355.5819    34033          417 
 3654000    292.74297   -63.535497    381.63838    34054          438 
 3655000    312.10218   -56.402075    376.09735    34021          405 
 3656000    311.83086   -58.607598     381.3187    34027          411 
 3657000     308.2247   -54.596812    384.12881    34034          418 
 3658000    283.04902   -57.567751    347.79394    34029          413 
 3659000    287.33934   -57.144277    360.91682    34036          420 
 3660000    271.10807   -63.792613    336.99448    34033          417 
 3661000    288.64464   -55.381241    339.96901    34011          395 
 3662000    299.51519   -43.324465    364.09277    34024          408 
 3663000    307.21871   -48.461468    367.64388    34018          402 
 3664000     287.1371   -47.701316    338.52085    34012          396 
 3665000    297.23778   -57.443185    371.50162    34034          418 
 3666000    298.13312   -54.914477    357.22039    34018          402 
 3667000    283.08653   -62.949646    357.72359    34039          423 
 3668000     292.3175   -61.155801    382.00133    34054          438 
 3669000    327.31083    -57.99322    376.48223    34002          386 
 3670000    262.54652   -53.578132    292.65903    33990          374 
 3671000    316.64667   -51.024703    374.69296    34012          396 
 3672000    299.36557   -53.183691     353.1313    34012          396 
 3673000    296.36727    -55.89418    355.23163    34019          403 
 3674000    280.53367    -57.82859    327.14579    34007          391 
 3675000     305.8678   -57.718774    394.98791    34049          433 
 3676000    301.74412   -53.392354    369.03665    34027          411 
 3677000    297.12497   -55.721407    389.88592    34057          441 
 3678000    274.81169   -47.769137    342.42149    34035          419 
 3679000    295.32086   -44.136475    345.22112    34007          391 
 3680000    305.10786   -51.602301    377.13148    34031          415 
 3681000    301.40456   -45.429025    387.15748    34046          430 
 3682000      287.117   -50.745698    367.21947    34044          428 
 3683000    282.73796   -61.279697     343.5157    34024          408 
 3684000     285.4256   -56.422648    373.66416    34056          440 
 3685000    288.53266   -51.198786    377.22838    34054          438 
 3686000    284.28323   -61.152142    358.83063    34039          423 
 3687000    279.16592   -58.090933    347.97026    34035          419 
 3688000    329.50297   -59.874286    421.06475    34044          428 
 3689000    300.63835   -65.657788    364.36412    34020          404 
 3690000    283.56859   -53.171523    335.39034    34010          394 
 3691000    289.68078   -55.125083    350.05819    34021          405 
 3692000    291.79157   -57.432885    348.18674    34017          401 
 3693000    279.38824   -59.137968     332.6012    34014          398 
 3694000    299.16082   -67.068294    350.20876    34009          393 
 3695000    270.46611   -54.457702    327.19616    34022          406 
 3696000     287.2942   -56.613955    358.10062    34035          419 
 3697000    291.84053   -58.259032    373.87099    34046          430 
 3698000    293.91806   -58.849212     367.1315    34035          419 
 3699000    308.05951   -54.944318    353.96872    34002          386 
 3700000    292.64883   -62.180892    357.32568    34025          409 
 3701000    265.74427   -64.286007    345.52008    34052          436 
 3702000    291.38833   -64.649978    379.61052    34054          438 
 3703000    302.88389   -63.615797    375.97948    34033          417 
 3704000    284.94086   -64.294261    346.63909    34024          408 
 3705000    289.30817   -66.179974    366.80916    34040          424 
 3706000    290.99682   -72.178064    377.20789    34050          434 
 3707000    291.50686   -65.171573     347.2471    34016          400 
 3708000    313.66581   -64.539128    406.01061    34051          435 
 3709000    296.17421   -64.225908    411.42106    34082          466 
 3710000    286.62774   -69.677406    366.72629    34046          430 
 3711000    296.66935   -69.941302    386.03773    34053          437 
 3712000    317.20258   -60.560745    407.50745    34047          431 
 3713000    309.27627   -60.667276    372.19939    34015          399 
 3714000    301.65729    -70.64874     379.4607    34038          422 
 3715000    286.68062   -65.923016    362.46357    34040          424 
 3716000    296.07806   -62.346065     348.9064    34012          396 
 3717000    298.29649   -64.510727    360.60802    34022          406 
 3718000    311.13878   -61.707053    391.39731    34038          422 
 3719000    297.94465   -64.124488    370.27164    34033          417 
 3720000    294.20636   -60.894925    368.93798    34037          421 
 3721000    296.18706   -73.497223    386.80694    34055          439 
 3722000    286.64339   -68.693181    359.79914    34036          420 
 3723000    301.67931    -69.42426    362.04288    34017          401 
 3724000    289.66094   -61.292796    380.30218    34057          441 
 3725000    303.37878    -65.84601    394.60534    34053          437 
 3726000    293.93195   -68.103363    398.92764    34071          455 
 3727000    268.66834   -72.752647    376.91694    34087          471 
 3728000    299.15965   -71.521274    395.99419    34061          445 
 3729000    285.28461   -73.462777    374.28883    34057          441 
 3730000    295.47574   -82.364616    405.81831    34077          461 
 3731000    278.50811   -63.906206    359.15632    34048          432 
 3732000    286.82708   -68.232388    371.03188    34049          433 
 3733000      293.727   -67.857224    361.57205    34029          413 
 3734000    306.89781   -60.678236    354.79976    34004          388 
 3735000    292.86463   -49.192236    367.51857    34037          421 
 3736000    284.97484   -51.584598    373.00437    34054          438 
 3737000    291.55247   -57.465848    367.11525    34039          423 
 3738000    294.96034   -60.165773     379.4166    34048          432 
 3739000    321.37355   -55.052388    415.29774    34048          432 
 3740000    291.23375    -55.17972    360.39386    34031          415 
 3741000     282.0852   -62.405733    363.75194    34049          433 
 3742000    295.69869   -57.718638    344.40822    34006          390 
 3743000     309.9749    -65.21102    386.52095    34034          418 
 3744000    285.97884   -68.803477    362.66009    34042          426 
 3745000    308.18798   -73.850624    427.54811    34081          465 
 3746000    285.70684   -56.591011     370.2773    34050          434 
 3747000    309.01075    -63.56521    369.87697    34018          402 
 3748000    312.80271   -60.372183    358.17513    34000          384 
 3749000    294.25566   -67.431016    367.65057    34036          420 
 3750000    278.04581   -66.668403    364.17539    34053          437 
 3751000    292.44912   -57.299723    392.67425    34066          450 
 3752000    305.35677   -66.400373    381.02351    34035          419 
 3753000    285.33441    -54.14193    348.71773    34026          410 
 3754000    304.87416    -51.89952    354.38495    34006          390 
 3755000    308.46622   -56.442656    374.54771    34023          407 
 3756000    306.32206   -67.027391    384.90539    34038          422 
 3757000     310.5956   -68.632729    397.98965    34046          430 
 3758000    299.73533   -57.112258    388.40302    34051          435 
 3759000    301.19026   -62.195604    384.45918    34045          429 
 3760000    281.39438   -54.735751    345.59771    34028          412 
 3761000    288.38891   -57.236306    375.12153    34050          434 
 3762000    295.69021   -54.941895    374.69254    34042          426 
 3763000    329.01128   -59.754958    422.88841    34048          432 
 3764000    289.75588   -53.643547    378.70143    34055          439 
 3765000    297.90805   -56.226549    362.58756    34024          408 
 3766000    300.50698   -52.771793    382.63436    34044          428 
 3767000    294.67089   -51.465434    357.52004    34023          407 
 3768000    273.87961   -52.555519    322.34425    34011          395 
 3769000    281.04568   -50.881134    350.06868    34033          417 
 3770000    297.14249   -45.339663    391.85575    34058          442 
 3771000    306.01748   -42.343815    358.99447    34009          393 
 3772000    270.79499   -53.137875    324.85567    34019          403 
 3773000    275.83233   -53.726734    321.18172    34006          390 
 3774000    284.55523   -57.006478    331.29505    34006          390 
 3775000    315.10738   -50.554836    389.00502    34030          414 
 3776000    292.13367    -55.07882    356.91312    34026          410 
 3777000    290.08352   -59.560711    351.57663    34022          406 
 3778000    314.58894   -63.680164    402.85604    34046          430 
 3779000     291.7804   -63.176045    351.65482    34020          404 
 3780000    296.46397   -55.186049    357.93183    34021          405 
 3781000    299.33813   -55.066033     379.8043    34041          425 
 3782000    284.43079   -49.883182    344.88436    34023          407 
 3783000    312.46714   -55.910665    385.13449    34030          414 
 3784000    277.17653   -59.007565    347.46646    34036          420 
 3785000    300.80132   -56.599387    357.01772    34014          398 
 3786000     297.1337   -59.964645    370.10997    34034          418 
 3787000    328.02032   -53.110799    426.20492    34052          436 
 3788000    294.13169   -53.242995    369.81055    34038          422 
 3789000    281.32612   -56.212901    348.05011    34031          415 
 3790000    293.82833   -54.961467    374.11661    34044          428 
 3791000    289.24563   -55.491966    358.54773    34031          415 
 3792000    287.41704   -50.797731    370.09895    34048          432 
 3793000    308.34622   -63.204048    391.17348    34042          426 
 3794000    296.49161   -62.663106    348.34635    34010          394 
 3795000    306.31883   -58.790099     383.7245    34036          420 
 3796000    284.93673   -68.743782    365.88297    34047          431 
 3797000     294.2001   -61.708992     356.6808    34023          407 
 3798000     309.9631   -63.696007    365.44766    34012          396 
 3799000    309.20142   -58.419797    397.62605    34047          431 
 3800000    273.62147   -55.008827    369.90712    34070          454 
 3801000    297.78728   -59.248833    366.41376    34029          413 
 3802000     289.5027    -61.17761    356.99246    34029          413 
 3803000    288.76642   -66.412647    397.53198    34078          462 
 3804000    304.31121   -58.364105    414.69457    34074          458 
 3805000    296.32019   -56.380123    377.87601    34044          428 
 3806000    294.94856   -47.489257    343.25629    34007          391 
 3807000    298.02279   -59.255847    360.20902    34021          405 
 3808000    286.98959   -61.344055    381.23463    34062          446 
 3809000    300.02444   -56.875005    384.74993    34045          429 
 3810000    285.04203   -56.548887    344.93131    34022          406 
 3811000    313.32064   -52.157183    373.95816    34015          399 
 3812000    299.95887   -51.672135     363.8397    34023          407 
 3813000    298.01963   -58.007648     375.3861    34039          423 
 3814000    300.00862   -58.097114    355.53829    34014          398 
 3815000    288.80758   -58.768768    360.37878    34035          419 
 3816000    282.77516    -61.28435    394.34583    34084          468 
 3817000    289.18066   -54.181391    347.74494    34019          403 
 3818000    275.81801   -55.688895    329.20027    34017          401 
 3819000    290.32327    -52.24524    362.88778    34036          420 
 3820000    278.78532   -53.614768    361.79925    34050          434 
 3821000     310.0824   -47.595703     390.8686    34039          423 
 3822000    282.29073   -55.937424    332.14102    34009          393 
 3823000    280.67022   -46.302912    345.11794    34028          412 
 3824000    303.74868   -48.116561    320.70578    33971          355 
 3825000    298.34487   -48.279021    344.18006    34004          388 
 3826000    295.89144   -45.811255    351.36508    34015          399 
 3827000     298.4583   -57.294815    357.79501    34018          402 
 3828000    287.65346   -59.300121    374.24532    34053          437 
 3829000    314.52277   -57.415663    376.06762    34017          401 
 3830000    295.60676   -55.507213    374.40113    34039          423 
 3831000    276.70569   -57.392596      329.176    34015          399 
 3832000    286.80067   -55.799433    354.38111    34028          412 
 3833000    287.19981   -52.053147    342.76993    34017          401 
 3834000    301.68549   -57.310012    387.43036    34047          431 
 3835000     297.8483   -61.642427    379.36805    34044          428 
 3836000     282.6039    -55.93181    356.64405    34040          424 
 3837000    304.01498   -52.527993    378.86423    34035          419 
 3838000    306.62924   -58.457516    358.81501    34008          392 
 3839000    282.31463   -58.308431    356.22961    34039          423 
 3840000    272.96552   -55.381269    342.35363    34037          421 
 3841000    298.04626   -61.018185    362.89508    34023          407 
 3842000    283.31586   -57.167868    358.60275    34041          425 
 3843000    288.14346   -63.985559    372.83723    34049          433 
 3844000    295.86233   -58.324368    353.35486    34017          401 
 3845000    295.09687   -61.053489    359.85998    34025          409 
 3846000    306.06061   -62.234203    371.26561    34023          407 
 3847000    287.19124   -67.058812    344.50138    34019          403 
 3848000    311.93188   -55.476531    379.74501    34025          409 
 3849000    306.87577   -64.409707     371.3982    34023          407 
 3850000    296.53416   -62.728289     378.9382    34045          429 
 3851000     293.2767   -58.478328    354.99101    34023          407 
 3852000    282.74813   -57.496617     316.0094    33991          375 
 3853000    297.75183    -59.56717     338.0382    33997          381 
 3854000    278.84711   -56.548285    343.69254    34030          414 
 3855000    307.69064   -57.806525    387.95285    34039          423 
 3856000    290.89792    -60.17888    335.24653    34003          387 
 3857000    283.88348   -64.001516    347.81982    34028          412 
 3858000    279.19085   -68.407357    370.26586    34061          445 
 3859000    293.43006   -59.694689    391.41049    34063          447 
 3860000    292.46486   -60.981934    379.65863    34052          436 
 3861000    273.45774   -61.859266     340.4951    34034          418 
 3862000    294.90963   -55.006382    372.63594    34040          424 
 3863000     296.1165   -63.615797     379.3797    34046          430 
 3864000    282.48014   -61.432193    362.99963    34047          431 
 3865000     308.8732   -65.280749    396.80688    34047          431 
 3866000    290.26202   -58.314726    381.18714    34057          441 
 3867000    295.18567   -57.626507    375.53077    34043          427 
 3868000    287.64844   -64.868035    347.59461    34021          405 
 3869000    275.06579   -62.874687    342.37445    34034          418 
 3870000    301.69567   -63.698555    391.86019    34050          434 
 3871000    281.03701   -65.731694    376.55382    34064          448 
 3872000    297.39513   -62.932689    402.71482    34071          455 
 3873000    281.77672   -63.252758    360.78948    34046          430 
 3874000    291.93339   -68.694198    369.18467    34040          424 
 3875000    303.35968   -60.341537    376.05109    34032          416 
 3876000    299.37405   -57.145402    358.36177    34018          402 
 3877000     308.3384   -55.259227    373.55627    34023          407 
 3878000    297.61418    -38.01368    354.88642    34017          401 
 3879000     285.2042   -55.998142    368.24494    34049          433 
 3880000    296.64206   -50.786507    375.57318    34041          425 
 3881000    290.01236   -55.348483     350.2396    34022          406 
 3882000    294.26729   -58.987742    363.25983    34031          415 
 3883000    297.92769   -54.698425    363.94157    34026          410 
 3884000    273.06142   -54.186558    330.64463    34021          405 
 3885000    290.27083   -44.394657    343.66368    34013          397 
 3886000     279.7433   -67.679628    346.67307    34030          414 
 3887000    281.19743   -53.714846    373.01201    34062          446 
 3888000    308.10463   -62.763693    370.86593    34020          404 
 3889000    276.07426   -59.251393    332.07409    34018          402 
 3890000    294.92946   -62.224705    389.71134    34059          443 
 3891000    309.97088   -69.727614    409.93426    34060          444 
 3892000    325.92715   -61.403232    414.83923    34043          427 
 3893000    292.19388   -55.822501    365.19517    34036          420 
 3894000    301.69297   -59.725374    379.63323    34039          423 
 3895000    285.66342    -58.81605    338.30669    34014          398 
 3896000    279.01164   -66.465201    348.02518    34033          417 
 3897000    277.83377   -61.196195    348.73733    34036          420 
 3898000    274.74071   -56.111168    356.82474    34052          436 
 3899000    293.02883   -50.977786    354.24868    34022          406 
 3900000    312.01997   -51.550992    373.56757    34018          402 
 3901000    295.71022   -64.720623    353.14577    34015          399 
 3902000    273.03923   -57.214117     333.1597    34024          408 
 3903000    307.10312   -53.828933    385.04419    34037          421 
 3904000    293.52774   -58.584604    375.66238    34046          430 
 3905000     296.3912   -60.264513    369.33345    34033          417 
 3906000     316.0903   -59.792167    398.74824    34040          424 
 3907000    282.16896   -60.340601    365.36263    34051          435 
 3908000    293.87266   -63.910922    371.71219    34041          425 
 3909000    295.37649   -66.344068    361.01886    34027          411 
 3910000    288.50142   -60.478653    360.61146    34036          420 
 3911000    287.37256   -62.038034    327.27459    33998          382 
 3912000    299.88801   -67.539178    392.47608    34055          439 
 3913000    297.05576   -65.489914    396.33967    34064          448 
 3914000    287.48845   -62.633478    366.04629    34044          428 
 3915000    289.64456   -54.149947    384.31188    34062          446 
 3916000    286.29258   -68.502558    357.54039    34035          419 
 3917000    304.33008   -63.198698    372.37632    34027          411 
 3918000    318.46518     -64.1774    387.68971    34024          408 
 3919000    272.84727   -60.807601    347.64857    34044          428 
 3920000    291.10136   -58.639763    375.92139    34050          434 
 3921000    303.14226   -59.202016    372.55531    34029          413 
 3922000    281.34148    -63.79669    343.32134    34026          410 
 3923000    310.09454   -69.170425     429.9872    34081          465 
 3924000    283.45608   -54.000996    364.03204    34047          431 
 3925000    286.29379   -62.844486    354.12007    34030          414 
 3926000    293.35536   -54.222705    354.88752    34022          406 
 3927000    290.51655   -58.142099    351.87976    34022          406 
 3928000    296.26989   -61.592636    357.17151    34019          403 
 3929000    297.41969   -55.826188    367.29628    34031          415 
 3930000    297.72189   -50.906118    400.81492    34067          451 
 3931000    307.74462   -54.524866    370.40935    34019          403 
 3932000    286.20641   -55.927753    356.90989    34035          419 
 3933000    307.82103    -55.07905     395.2745    34044          428 
 3934000    281.14616   -58.712541    334.54562    34016          400 
 3935000    290.28507   -55.180785    348.98626    34020          404 
 3936000     285.0875   -51.995469    357.02317    34036          420 
 3937000     300.6544   -65.568408    387.41364    34049          433 
 3938000    298.70683   -64.577899    402.86087    34069          453 
 3939000       282.14   -53.300999    318.29849    33995          379 
 3940000    286.61568   -52.026983    336.40623    34010          394 
 3941000    301.59189   -51.378079    364.17048    34021          405 
 3942000    277.87664    -58.66789    349.44354    34038          422 
 3943000    305.59089   -49.965475    377.47126    34030          414 
 3944000     300.2697   -51.499111    349.88793    34006          390 
 3945000    302.40508    -57.67028    342.55756    33997          381 
 3946000    287.14189   -53.117713    329.60623    34001          385 
 3947000     288.9737   -55.536343    326.28559    33993          377 
 3948000    286.66345    -46.25904    313.57607    33983          367 
 3949000    310.75209   -60.058484    363.25357    34008          392 
 3950000    302.47089   -51.691051    380.64681    34038          422 
 3951000    296.59058   -57.313183    395.02851    34063          447 
 3952000    295.86745   -59.756265    361.06655    34026          410 
 3953000    284.77442   -68.650408    341.36046    34019          403 
 3954000    297.36819   -60.144927    355.49735    34017          401 
 3955000    302.38919   -65.972144    377.50383    34032          416 
 3956000     293.5309   -63.185951    347.74428    34013          397 
 3957000    286.65449   -63.314807    342.40746    34016          400 
 3958000    324.75122    -67.78099     395.5238    34025          409 
 3959000    291.12735   -58.550824    348.05115    34017          401 
 3960000    302.35431   -57.610781     333.0301    33984          368 
 3961000     299.4224   -50.077442    349.09222    34008          392 
 3962000    305.36968   -47.240363    349.34518    34000          384 
 3963000    298.88296   -56.864948     356.6123    34016          400 
 3964000    300.11209    -56.24494    332.29143    33988          372 
 3965000    287.25367   -51.141728    328.93735    34000          384 
 3966000     292.5989   -51.630411    353.79012    34022          406 
 3967000    290.77721   -55.302345    335.06893    34002          386 
 3968000    280.91857   -51.532883    344.40163    34028          412 
 3969000    285.03707   -51.953581    359.42004    34039          423 
 3970000    292.00617   -48.981112    356.36921    34026          410 
 3971000    291.10882   -55.451402    373.32126    34046          430 
 3972000    288.83923   -63.185529    356.90728    34030          414 
 3973000    312.41953   -53.844038    376.67479    34020          404 
 3974000    281.80879   -60.569713    376.28447    34063          447 
 3975000    286.97255   -59.373257    369.87718    34048          432 
 3976000    280.73577   -56.109803    350.47509    34034          418 
 3977000    300.24615   -47.425881    368.19694    34028          412 
 3978000     269.5001   -44.330372    308.79587    34000          384 
 3979000    283.27067   -54.299723    325.38096    34000          384 
 3980000    309.60323   -52.626569    373.94663    34022          406 
 3981000    276.60287   -65.071453    330.69312    34018          402 
 3982000    259.90461   -65.143265    323.45735    34033          417 
 3983000    293.33283   -69.973237    379.53862    34051          435 
 3984000     298.7264   -59.318352    369.00035    34031          415 
 3985000    292.31752   -61.252243    349.93949    34017          401 
 3986000    283.49292   -66.025821    359.30785    34042          426 
 3987000    301.93037   -64.027811    388.36119    34048          432 
 3988000     294.1387   -66.674204    361.64305    34029          413 
 3989000     282.9811   -67.479962    362.02551    34046          430 
 3990000    290.22675   -66.380252    375.08524    34050          434 
 3991000    275.46269   -60.171814    361.55247    34057          441 
 3992000    299.88082    -57.60384    371.37567    34032          416 
 3993000    290.86561   -58.778061    371.53323    34044          428 
 3994000    307.55293   -59.748438    382.54735    34034          418 
 3995000    292.69455   -51.576154    346.15966    34013          397 
 3996000    294.83836   -56.016534    349.42907    34014          398 
 3997000    280.60781   -58.721152    371.00721    34060          444 
 3998000    306.37885   -55.095959    353.14194    34003          387 
 3999000    295.48537   -58.962817    370.81856    34036          420 
 4000000     311.1238   -63.105511    410.14183    34059          443 
Loop time of 27266.1 on 5 procs for 3000000 steps with 34059 atoms

Performance: 9.506 ns/day, 2.525 hours/ns, 110.027 timesteps/s
99.5% CPU use with 5 MPI tasks x no OpenMP threads

MPI task timing breakdown:
Section |  min time  |  avg time  |  max time  |%varavg| %total
---------------------------------------------------------------
Pair    | 886.65     | 915.9      | 958.05     |  79.1 |  3.36
Neigh   | 16163      | 16537      | 17353      | 334.3 | 60.65
Comm    | 2264.8     | 2865.8     | 3475.1     | 893.8 | 10.51
Output  | 0.48896    | 4.4492     | 5.4439     |  93.9 |  0.02
Modify  | 6406.4     | 6651.2     | 7014.4     | 346.7 | 24.39
Other   |            | 291.6      |            |       |  1.07

Nlocal:    6811.8 ave 6885 max 6700 min
Histogram: 1 0 0 0 0 2 0 0 1 1
Nghost:    17346 ave 17613 max 17169 min
Histogram: 2 0 1 0 0 0 1 0 0 1
Neighs:    12250.8 ave 13266 max 11076 min
Histogram: 1 0 1 0 0 0 1 1 0 1

Total # of neighbors = 61254
Ave neighs/atom = 1.79847
Neighbor list builds = 141386
Dangerous builds = 0

write_data        C100H82N2O5S2_gcmc4ns.data




Total wall time: 10:09:18
