LAMMPS (16 Mar 2018)
#

# variables available on command line

variable        T index 293.15      # K
variable        P index 15     # MPa
variable	    fe index 1.0948
variable        Patm equal ${P}/0.101325       # atm
variable        Patm equal 15/0.101325       

# global model settings

echo               both
units              real
dimension          3
atom_style         full
boundary           p p p

pair_style         lj/cut/coul/long  12.5
pair_modify        shift yes mix arithmetic
kspace_style       pppm 0.0001
bond_style         harmonic
angle_style        harmonic
read_data         C199_H2_1020watergcmc0.5ns.data
  orthogonal box = (0 0 -70) to (201.685 30.2528 70)
  5 by 1 by 2 MPI processor grid
  reading atoms ...
  37102 atoms
  reading velocities ...
  37102 velocities
  scanning bonds ...
  2 = max bonds/atom
  scanning angles ...
  1 = max angles/atom
  reading bonds ...
  2040 bonds
  reading angles ...
  1020 angles
  2 = max # of 1-2 neighbors
  1 = max # of 1-3 neighbors
  1 = max # of 1-4 neighbors
  2 = max # of special neighbors

# pair_coeff

pair_coeff 	1	1	0.105	3.851
pair_coeff 	2	2	0.105	3.851
pair_coeff 	3	3	0.105	3.851
pair_coeff 	4	4	0.105	3.851
pair_coeff 	5	5	0.105	3.851
pair_coeff 	6	6	0.06	3.5
pair_coeff 	7	7	0.105	3.851
pair_coeff 	8	8	0.06	3.5
pair_coeff 	9	9	0.069	3.66
pair_coeff 	10	10	0.06	3.5
pair_coeff 	11	11	0.044	2.886
pair_coeff 	12	12	0.044	2.886
pair_coeff 	13	13	0.044	2.886

pair_coeff      14 14 0.15535 3.166
pair_coeff      15 15 0.0000 0.0000

pair_coeff 	16	16    0.072896 2.958

# region
region            soall  block  EDGE EDGE EDGE EDGE -20  20 units box side in
region            subbulk  block  EDGE EDGE EDGE EDGE -16.25  16.25 units box side in

# define groups
molecule        h2omol H2O.txt
Read molecule h2omol:
  3 atoms with max type 2
  2 bonds with max type 1
  1 angles with max type 1
  0 dihedrals with max type 0
  0 impropers with max type 0
group              h2o type 14 15
3060 atoms in group h2o
group             wall  type < 14
32936 atoms in group wall
group		      ggcmc type 16
1106 atoms in group ggcmc

variable 	      type16 atom "type==16"
group 	            type16 dynamic ggcmc var type16
dynamic group type16 defined
variable          nH2 equal count(type16)
group             bH2 dynamic ggcmc region subbulk every 100
dynamic group bH2 defined
variable          nbH2 equal count(bH2)

compute           mtem type16 temp/com
compute           mwtem h2o temp/com
compute_modify    mtem dynamic/dof yes

neighbor          2.0 bin
neigh_modify      every 10 delay 0 check yes  exclude group wall wall

#MD settings

fix               1  wall nve/noforce  # move linear 0 0 0
fix               2 ggcmc gcmc 100 100 100 16 29494  ${T} 1 0.5 region soall pressure ${Patm} fugacity_coeff ${fe} group ggcmc
fix               2 ggcmc gcmc 100 100 100 16 29494  293.15 1 0.5 region soall pressure ${Patm} fugacity_coeff ${fe} group ggcmc
fix               2 ggcmc gcmc 100 100 100 16 29494  293.15 1 0.5 region soall pressure 148.038490007402 fugacity_coeff ${fe} group ggcmc
fix               2 ggcmc gcmc 100 100 100 16 29494  293.15 1 0.5 region soall pressure 148.038490007402 fugacity_coeff 1.0948 group ggcmc

fix               mynvt h2o nvt temp ${T} ${T} 100
fix               mynvt h2o nvt temp 293.15 ${T} 100
fix               mynvt h2o nvt temp 293.15 293.15 100
fix_modify        mynvt temp mwtem
WARNING: Temperature for fix modify is not for group all (../fix_nh.cpp:1404)
fix               wshake h2o shake 0.0001 50 0 b 1 a 1 mol h2omol
  0 = # of size 2 clusters
  0 = # of size 3 clusters
  0 = # of size 4 clusters
  1020 = # of frozen angles
fix               3 type16 nvt temp ${T}  ${T}  100
fix               3 type16 nvt temp 293.15  ${T}  100
fix               3 type16 nvt temp 293.15  293.15  100
fix_modify        3 temp mtem
WARNING: Temperature for fix modify is not for group all (../fix_nh.cpp:1404)

thermo            1000
thermo_style      custom step c_mtem c_mwtem  pe ke atoms v_nH2 v_nbH2

run               200000
PPPM initialization ...
  using 12-bit tables for long-range coulomb (../kspace.cpp:321)
  G vector (1/distance) = 0.168895
  grid = 40 9 30
  stencil order = 5
  estimated absolute RMS force accuracy = 0.0285813
  estimated relative force accuracy = 8.60717e-05
  using double precision FFTs
  3d grid and FFT values/proc = 3640 1080
WARNING: Fix gcmc using full_energy option (../fix_gcmc.cpp:485)
0 atoms in group FixGCMC:gcmc_exclusion_group:2
WARNING: Neighbor exclusions used with KSpace solver may give inconsistent Coulombic energies (../neighbor.cpp:472)
Neighbor list info ...
  update every 10 steps, delay 0 steps, check yes
  max neighbors/atom: 2000, page size: 100000
  master list distance cutoff = 14.5
  ghost atom cutoff = 14.5
  binsize = 7.25, bins = 28 5 20
  1 neighbor lists, perpetual/occasional/extra = 1 0 0
  (1) pair lj/cut/coul/long, perpetual
      attributes: half, newton on
      pair build: half/bin/newton
      stencil: half/bin/3d/newton
      bin: standard
Per MPI rank memory allocation (min/avg/max) = 9.247 | 9.975 | 12.8 Mbytes
Step c_mtem c_mwtem PotEng KinEng Atoms v_nH2 v_nbH2 
       0    289.94477    297.20041   -28277.987     2763.883    37102         1106          653 
    1000    299.36026    282.41035   -28218.409    2725.3285    37126         1130          658 
    2000    302.32014    297.18435   -28211.752    2840.3482    37139         1143          688 
    3000    285.07406    285.86902   -28312.099    2698.8654    37126         1130          665 
    4000    293.36032      284.558   -28202.695    2687.5128    37092         1096          633 
    5000    295.33486    289.98176   -28189.055    2769.7223    37135         1139          698 
    6000    280.70528    300.49527   -28203.918    2774.9822    37129         1133          679 
    7000    293.88808    292.07944   -28233.117    2744.9351    37102         1106          663 
    8000    299.79845    285.01691   -28269.737     2734.361    37115         1119          678 
    9000    296.26747    285.89771   -28354.917    2707.5831    37094         1098          649 
   10000    280.37239     288.6473   -28254.013    2684.2612    37107         1111          644 
   11000    297.89923    292.41798   -28232.199     2781.516    37125         1129          665 
   12000    300.90881    289.74892   -28251.124    2756.0121    37104         1108          666 
   13000    294.66584    289.25529   -28251.801    2739.2064    37112         1116          647 
   14000    281.15713    285.40383   -28171.379    2643.0802    37078         1082          650 
   15000    288.01301    288.46667   -28248.244    2695.1765    37093         1097          655 
   16000    306.68441    304.32521   -28174.387    2858.3845    37095         1099          648 
   17000    297.46331    294.16037   -28262.978    2759.9387    37089         1093          663 
   18000    306.10982      293.372   -28161.685    2802.6273    37114         1118          693 
   19000    297.31343    299.64332   -28314.741    2778.7671    37076         1080          630 
   20000    295.79253    298.30456   -28258.271    2751.8577    37061         1065          623 
   21000    284.04265    294.23272   -28243.496    2705.7655    37078         1082          647 
   22000    290.62373    293.69702   -28224.715     2680.603    37029         1033          615 
   23000    298.79122    293.85012   -28214.017    2703.2899    37025         1029          592 
   24000    294.55296    295.67545   -28188.047    2716.7313    37044         1048          639 
   25000    288.07031     289.3551    -28191.16    2657.5147    37041         1045          639 
   26000    304.98258    300.82162   -28286.594    2786.9798    37050         1054          638 
   27000     301.2315    295.67967   -28258.654     2736.641    37041         1045          624 
   28000    298.01821    291.47722   -28167.434    2701.6567    37041         1045          624 
   29000    294.89143    287.93588   -28257.066    2676.9792    37051         1055          618 
   30000    297.61457    292.00372   -28261.727    2712.8155    37053         1057          625 
   31000    287.44307    289.41063   -28254.702    2702.8463    37097         1101          668 
   32000    288.19639    288.97722    -28207.64    2705.5453    37099         1103          638 
   33000    292.69065    299.69949   -28174.951    2780.4484    37093         1097          658 
   34000    298.70967    291.65633   -28194.103    2751.5437    37095         1099          636 
   35000    296.40647     286.3136   -28207.024    2745.9292    37131         1135          653 
   36000    290.55853     299.2456   -28168.846    2803.5468    37131         1135          657 
   37000    285.43188    301.03719   -28304.106    2776.9331    37109         1113          634 
   38000    283.28942     291.7984   -28240.922    2717.8895    37113         1117          642 
   39000    300.61373    292.60127    -28221.49    2764.8774    37096         1100          660 
   40000    297.89147    281.77839   -28230.152    2685.6032    37092         1096          641 
   41000    292.03001     297.3028   -28303.267      2764.79    37097         1101          634 
   42000    287.38912    292.49379   -28261.228    2765.3876    37148         1152          672 
   43000    288.28011    296.07974   -28245.363    2776.4755    37131         1135          657 
   44000    286.23541    290.59344    -28283.25    2733.3935    37128         1132          674 
   45000    299.54683    296.56905   -28276.816     2804.442    37115         1119          657 
   46000    298.22023    299.16525    -28267.36     2836.185    37141         1145          683 
   47000    282.72823    301.51834   -28213.132     2761.501    37099         1103          638 
   48000    291.21744    301.09838   -28220.031    2789.0933    37099         1103          639 
   49000     292.4083    282.43061   -28155.131    2706.8896    37130         1134          671 
   50000    296.57288    288.61005   -28263.787    2732.5364    37102         1106          643 
   51000    301.39775    284.46063   -28175.287    2730.6692    37107         1111          637 
   52000    294.48103    296.99211   -28192.672    2770.2167    37095         1099          616 
   53000    284.74552    298.43128   -28258.835    2755.3071    37103         1107          624 
   54000    295.33746    296.75363   -28213.016    2780.5659    37104         1108          633 
   55000    302.27034     292.1969   -28243.972     2792.576    37124         1128          669 
   56000    294.68309    290.04623   -28220.986    2768.0169    37140         1144          675 
   57000    278.58939    294.45754   -28224.321    2718.4756    37112         1116          659 
   58000    287.39126    298.01194   -28169.723    2770.8635    37113         1117          672 
   59000    302.84246    297.78508   -28318.484    2843.5578    37139         1143          665 
   60000      288.659    281.20483   -28322.409    2681.9915    37123         1127          677 
   61000    288.49533    290.35361   -28237.507    2739.3281    37128         1132          676 
   62000     297.0733    298.75659    -28216.47    2779.9679    37084         1088          642 
   63000    300.93411    290.85911   -28268.837    2766.6678    37108         1112          653 
   64000    292.86118    290.24251   -28184.907    2726.3635    37098         1102          674 
   65000    291.73378    297.31913   -28278.477    2738.2133    37067         1071          637 
   66000    277.45868    286.13144   -28165.035    2659.0716    37109         1113          675 
   67000    294.64308    287.06221   -28173.756    2709.7869    37095         1099          659 
   68000    305.54672    289.74421   -28232.691    2763.3912    37096         1100          653 
   69000    288.69505    295.15076   -28272.796    2723.2128    37075         1079          670 
   70000     291.8245     284.3844   -28233.369    2676.1372    37084         1088          652 
   71000    292.13575     293.3122   -28210.796    2730.7006    37085         1089          638 
   72000    293.53654    286.70815   -28093.692    2665.3988    37051         1055          612 
   73000    315.98586    299.65083   -28212.385     2847.778    37085         1089          640 
   74000    288.35052    290.34141   -28241.027    2690.0642    37073         1077          632 
   75000     290.8374    296.93489   -28145.302    2771.7056    37109         1113          667 
   76000     286.7213     286.7331   -28212.452    2675.8969    37085         1089          624 
   77000    298.21885    294.05637   -28224.945    2742.1765    37070         1074          644 
   78000    281.47761    283.55186   -28222.414    2599.9561    37040         1044          617 
   79000    282.96876    290.00953   -28132.564    2697.4356    37103         1107          690 
   80000    288.87696    297.48334   -28187.693    2747.8145    37084         1088          656 
   81000    306.16296    288.65413   -28168.358    2745.7913    37080         1084          652 
   82000    294.54792    292.50756   -28223.679     2743.207    37096         1100          660 
   83000    293.82072    302.27677   -28241.545    2760.9543    37050         1054          634 
   84000    281.85158    294.62455   -28210.941    2671.4973    37045         1049          613 
   85000    296.40041     287.9292   -28177.952     2663.593    37029         1033          603 
   86000    295.93823    289.56971   -28268.603    2676.5286    37030         1034          599 
   87000    308.23531    290.17358   -28236.391    2710.5506    37025         1029          587 
   88000    304.45741    299.76981   -28170.744    2785.0984    37056         1060          645 
   89000    295.12973    290.60509   -28221.329    2695.2473    37052         1056          625 
   90000    288.21939    286.75046   -28193.253    2639.3313    37039         1043          603 
   91000    306.92239    299.56306   -28282.803    2802.5959    37065         1069          625 
   92000    288.94872    294.79985   -28155.383    2713.1678    37065         1069          640 
   93000    290.55332    286.54256   -28224.286     2698.873    37101         1105          670 
   94000    291.43515    297.17214   -28295.548    2786.2632    37125         1129          653 
   95000    294.94532     295.4888     -28219.9    2800.6003    37137         1141          653 
   96000    283.51695     277.8446   -28232.673    2639.9734    37121         1125          658 
   97000    292.75069    304.26948   -28273.908    2828.2342    37117         1121          666 
   98000    309.69416     291.2781   -28117.568    2775.4534    37084         1088          652 
   99000    291.16998     287.9876   -28201.248    2702.1249    37089         1093          652 
  100000     291.9328    292.85792   -28216.135    2718.4289    37072         1076          613 
  101000    296.28538    280.03361   -28322.784    2663.2585    37084         1088          625 
  102000     297.5889    288.89102   -28263.058    2757.0972    37124         1128          672 
  103000    292.29964    301.93984   -28224.015     2809.396    37113         1117          657 
  104000    289.49438    294.59025   -28178.943    2730.3539    37084         1088          652 
  105000    296.21389    297.36293   -28272.423    2753.3943    37068         1072          643 
  106000    302.03046    294.43318   -28170.201    2784.8515    37100         1104          652 
  107000    302.32017    294.60918   -28227.328    2771.2693    37084         1088          639 
  108000    297.37988    303.31244   -28071.662    2833.3206    37113         1117          665 
  109000    305.98192    290.39548   -28179.599    2794.8532    37125         1129          679 
  110000    296.81548    301.58835   -28188.454    2848.5613    37142         1146          687 
  111000    287.99459    282.40238   -28181.583    2661.7467    37097         1101          653 
  112000    278.41839    293.64942   -28233.349    2695.0271    37092         1096          670 
  113000    285.51842    287.62869   -28179.408    2705.5974    37120         1124          671 
  114000     285.7893    292.08823   -28169.288    2743.5343    37131         1135          677 
  115000    292.12179    287.16774   -28191.395    2718.0248    37111         1115          670 
  116000    294.38029    286.36816   -28203.121    2669.4375    37054         1058          602 
  117000    279.95545    291.35284   -28210.786    2665.2465    37065         1069          629 
  118000    291.03197    292.33503   -28139.979    2692.3238    37051         1055          620 
  119000    284.93435    292.30197   -28224.591    2715.9389    37100         1104          655 
  120000    280.11494    296.61725   -28179.538    2706.2067    37078         1082          654 
  121000    293.07062    284.30284   -28127.696    2662.2607    37065         1069          633 
  122000    296.14392    291.11168    -28277.69    2707.8535    37057         1061          606 
  123000    283.83193      292.687    -28207.01    2690.3948    37071         1075          645 
  124000    292.28769    285.49794   -28293.024    2659.0498    37056         1060          613 
  125000    291.20933    287.02911   -28173.116    2674.3528    37065         1069          645 
  126000    290.02419    284.26755    -28232.21    2653.4401    37067         1071          646 
  127000    313.91277     295.0396   -28144.929    2798.0217    37070         1074          638 
  128000    291.39607    283.67728   -28235.183    2685.9558    37103         1107          645 
  129000    280.38288     297.8677    -28184.25    2715.3188    37077         1081          631 
  130000    289.53674    289.54483   -28216.757    2700.0808    37084         1088          647 
  131000    293.53861    293.96063   -28112.989    2724.8778    37066         1070          621 
  132000     279.0917    290.13086   -28236.131    2672.4209    37089         1093          643 
  133000    286.04633    303.21022   -28218.205    2789.8173    37106         1110          661 
  134000      294.702    284.52838   -28292.413    2730.0987    37133         1137          673 
  135000    291.37771    294.07328   -28287.292    2749.4774    37103         1107          636 
  136000    294.81764    285.86216   -28233.519    2720.5442    37114         1118          655 
  137000     277.9439    286.35933   -28284.302     2662.389    37108         1112          673 
  138000     304.9905    288.94839   -28300.293    2761.9609    37102         1106          679 
  139000    289.76743     295.3818   -28225.369    2762.6796    37116         1120          659 
  140000     286.5682    291.11707   -28226.868    2753.9664    37149         1153          667 
  141000    301.63963    292.88904   -28341.437    2785.7245    37114         1118          620 
  142000    283.14809    296.39575    -28254.64    2742.0921    37110         1114          630 
  143000     288.6955    291.44554   -28282.625    2744.0298    37126         1130          644 
  144000    288.05528    290.94025   -28223.224    2773.9748    37167         1171          670 
  145000    298.48895    297.66388   -28154.529    2808.0036    37118         1122          623 
  146000    298.91153    281.76007   -28169.286    2700.5342    37104         1108          638 
  147000     290.0588     291.2576   -28273.359    2760.9929    37140         1144          700 
  148000    283.44759    277.18735   -28123.529    2640.3313    37126         1130          672 
  149000    286.68703    286.45951   -28201.691    2693.1515    37110         1114          655 
  150000    291.73887    289.95625   -28216.851    2756.2626    37139         1143          680 
  151000    286.58155    298.61052   -28222.188    2756.8227    37098         1102          651 
  152000    286.87819    291.28901   -28150.124    2707.0289    37090         1094          636 
  153000    286.42119    294.69838   -28224.345    2715.6589    37078         1082          642 
  154000    291.18308    291.71441   -28259.225    2700.3287    37063         1067          629 
  155000    295.83117    298.72653   -28276.871    2768.7756    37075         1079          649 
  156000    290.79631    283.53506   -28127.981    2692.7443    37113         1117          671 
  157000    295.05828    291.55867   -28232.427    2758.0457    37116         1120          687 
  158000    296.07246    290.54148   -28180.631    2766.7455    37126         1130          685 
  159000    284.61802    301.45125   -28197.912    2768.4022    37099         1103          661 
  160000    297.41046    295.42283   -28201.685    2787.0286    37113         1117          676 
  161000      301.884     295.7764   -28140.027    2779.5765    37087         1091          644 
  162000    301.37331    294.99191   -28272.461    2752.4362    37064         1068          638 
  163000    285.10321    300.19906   -28232.414    2757.7964    37092         1096          655 
  164000    298.85981    287.19701   -28151.679    2714.2936    37079         1083          657 
  165000    306.73109    293.27491   -28225.102    2771.1063    37077         1081          626 
  166000    295.11897    285.76417   -28240.781    2685.7761    37074         1078          625 
  167000    290.72027     288.3764   -28224.023    2692.4087    37079         1083          645 
  168000    290.20963    290.34882   -28143.141    2732.3252    37113         1117          665 
  169000    292.63617    297.37404   -28200.738    2778.9061    37110         1114          679 
  170000    303.15671    288.84135   -28249.043    2758.6804    37106         1110          670 
  171000    290.94262    292.43357   -28192.061     2738.891    37105         1109          673 
  172000    289.05997    297.44131   -28253.086    2710.3324    37044         1048          628 
  173000      292.113    296.31226   -28226.112    2704.2486    37033         1037          596 
  174000    293.26398    297.85045   -28214.772    2757.6918    37080         1084          651 
  175000    300.11978    303.10594   -28328.807    2821.5131    37091         1095          644 
  176000      298.002    295.39536   -28221.284    2789.6268    37114         1118          662 
  177000    281.80327    291.79382   -28246.604     2694.913    37092         1096          636 
  178000    291.05364    289.48754   -28197.644     2698.886    37078         1082          616 
  179000    293.63276    292.25377   -28194.557    2708.8274    37058         1062          615 
  180000    295.83841    291.90262   -28226.369    2743.5163    37095         1099          632 
  181000     305.0363    286.03984   -28290.718     2738.323    37095         1099          646 
  182000    296.98144    290.65524   -28282.023    2739.6411    37095         1099          667 
  183000    303.13687    286.13442   -28268.997      2737.94    37102         1106          619 
  184000    312.66467    296.42997   -28373.946    2826.1139    37095         1099          654 
  185000    295.24731    296.07076   -28285.988    2755.2087    37082         1086          628 
  186000    287.90167    286.61061    -28267.47    2708.1616    37121         1125          662 
  187000    300.33315    284.21299   -28274.715    2759.1046    37147         1151          676 
  188000    280.70715    292.24086   -28245.231    2730.8305    37137         1141          676 
  189000    290.89413    294.94167   -28146.426    2767.1815    37120         1124          661 
  190000    293.71997    289.42828   -28189.927     2728.145    37101         1105          632 
  191000    306.34071    296.25663   -28218.669    2811.5841    37101         1105          642 
  192000    292.59656    290.95566   -28242.622    2772.2403    37147         1151          681 
  193000    285.53126    298.43172    -28270.99    2752.9857    37098         1102          651 
  194000    290.30996    288.24906   -28147.907    2703.0008    37094         1098          664 
  195000    287.21126    294.67153   -28222.711    2730.4935    37093         1097          661 
  196000    279.96889    291.88493   -28245.733    2675.7832    37077         1081          652 
  197000    291.66354    296.91529   -28318.491    2741.1941    37074         1078          650 
  198000    293.90386    293.33665   -28259.663    2712.8827    37057         1061          640 
  199000    292.43115    286.28565   -28211.366    2651.5241    37042         1046          597 
  200000       291.94    282.25326   -28273.629    2669.7648    37092         1096          634 
Loop time of 50969 on 10 procs for 200000 steps with 37092 atoms

Performance: 0.339 ns/day, 70.790 hours/ns, 3.924 timesteps/s
95.3% CPU use with 10 MPI tasks x no OpenMP threads

MPI task timing breakdown:
Section |  min time  |  avg time  |  max time  |%varavg| %total
---------------------------------------------------------------
Pair    | 89.35      | 775.65     | 3701       |4274.0 |  1.52
Bond    | 0.043631   | 0.064085   | 0.089977   |   6.1 |  0.00
Kspace  | 539.96     | 3433.7     | 4154       |2017.6 |  6.74
Neigh   | 670.95     | 671.46     | 671.93     |   1.2 |  1.32
Comm    | 53.895     | 114.52     | 174.44     | 387.3 |  0.22
Output  | 0.032024   | 0.032529   | 0.036079   |   0.7 |  0.00
Modify  | 45952      | 45969      | 45986      |   4.8 | 90.19
Other   |            | 4.689      |            |       |  0.01

Nlocal:    3709.2 ave 4975 max 3342 min
Histogram: 6 2 0 0 0 0 1 0 0 1
Nghost:    9715 ave 10768 max 8847 min
Histogram: 4 0 1 0 0 0 1 1 1 2
Neighs:    189760 ave 926852 max 13607 min
Histogram: 7 1 0 0 0 0 1 0 0 1

Total # of neighbors = 1897602
Ave neighs/atom = 51.1593
Ave special neighs/atom = 0.164995
Neighbor list builds = 410492
Dangerous builds = 0
write_data        C199_H2_1020watergcmc0.7ns.data
PPPM initialization ...
  using 12-bit tables for long-range coulomb (../kspace.cpp:321)
  G vector (1/distance) = 0.168895
  grid = 40 9 30
  stencil order = 5
  estimated absolute RMS force accuracy = 0.0285852
  estimated relative force accuracy = 8.60833e-05
  using double precision FFTs
  3d grid and FFT values/proc = 3640 1080
WARNING: Neighbor exclusions used with KSpace solver may give inconsistent Coulombic energies (../neighbor.cpp:472)
run               300000
PPPM initialization ...
  using 12-bit tables for long-range coulomb (../kspace.cpp:321)
  G vector (1/distance) = 0.168895
  grid = 40 9 30
  stencil order = 5
  estimated absolute RMS force accuracy = 0.0285852
  estimated relative force accuracy = 8.60833e-05
  using double precision FFTs
  3d grid and FFT values/proc = 3640 1080
WARNING: Neighbor exclusions used with KSpace solver may give inconsistent Coulombic energies (../neighbor.cpp:472)
Per MPI rank memory allocation (min/avg/max) = 9.577 | 10.35 | 13.51 Mbytes
Step c_mtem c_mwtem PotEng KinEng Atoms v_nH2 v_nbH2 
  200000       291.94    282.25326   -28273.629    2669.7648    37092         1096          637 
  201000    294.00863    294.21533   -28230.243    2773.9407    37120         1124          655 
  202000    293.05798    289.26671   -28233.512     2757.438    37140         1144          683 
  203000    286.78402    300.06037   -28252.008    2822.7359    37162         1166          686 
  204000    285.35968    299.00163   -28366.374    2764.5685    37110         1114          642 
  205000    293.36612     298.0982   -28287.252    2799.7077    37126         1130          649 
  206000    292.04528    291.29772   -28298.913    2753.0358    37122         1126          669 
  207000    296.90215    286.50725   -28186.778    2717.4028    37099         1103          669 
  208000    300.44716    295.73175   -28239.496    2797.7993    37112         1116          685 
  209000    288.70018    292.21176   -28217.462     2701.566    37069         1073          618 
  210000    279.05902    295.36885   -28266.389    2702.3155    37085         1089          646 
  211000    299.71934    293.85529   -28226.647     2799.977    37129         1133          665 
  212000    294.53597    296.57198   -28137.149    2790.7134    37122         1126          683 
  213000    290.67122    293.14088   -28159.124    2748.4561    37112         1116          659 
  214000    286.32573    287.02935    -28192.32    2722.9619    37142         1146          714 
  215000    300.65444    289.59618   -28106.991    2735.8572    37084         1088          641 
  216000    299.21215    287.83699   -28244.459    2722.1813    37084         1088          637 
  217000    301.78326    288.24165   -28220.518     2741.176    37095         1099          645 
  218000    280.07777    289.64611   -28211.981    2656.5674    37068         1072          617 
  219000    296.96548    292.05827   -28242.863     2720.784    37062         1066          596 
  220000    297.55252    292.15756   -28299.631    2742.3469    37084         1088          605 
  221000    293.15179    286.10453   -28264.378    2707.1999    37102         1106          646 
  222000    304.02937    292.24224   -28157.967    2743.3822    37062         1066          629 
  223000    283.85788    293.45959   -28243.134    2656.2992    37028         1032          577 
  224000    292.10267    303.06896   -28147.269    2771.9596    37064         1068          630 
  225000     299.9265    287.14732   -28267.483    2731.1072    37098         1102          659 
  226000    303.92004    299.02775   -28282.509    2799.2531    37079         1083          617 
  227000     298.8308    300.33908   -28134.573    2810.7853    37102         1106          644 
  228000    289.48742    298.71437   -28169.988    2763.4003    37091         1095          625 
  229000    295.33876    295.79095   -28266.069    2773.8721    37103         1107          658 
  230000    299.30644     306.9287   -28140.469    2862.0084    37110         1114          663 
  231000    292.39608    291.97798   -28180.392    2738.5485    37100         1104          646 
  232000     294.9414    296.27553    -28199.67    2771.2412    37100         1104          652 
  233000    278.27423    296.86993   -28134.439    2727.6567    37109         1113          651 
  234000    290.28944    294.04467   -28188.621    2747.9861    37105         1109          648 
  235000    290.57328    291.48131   -28199.996    2740.6825    37112         1116          662 
  236000    291.87399    295.45934   -28204.824    2726.7122    37066         1070          618 
  237000    295.77096    284.40359   -28202.861    2650.6948    37042         1046          630 
  238000    300.29996    303.92983    -28222.83     2819.712    37081         1085          645 
  239000    280.67893    289.57498   -28210.673    2678.8413    37093         1097          641 
  240000    291.28694    292.19933   -28267.392    2704.7093    37065         1069          623 
  241000    293.26098    294.30954   -28183.992    2738.6115    37082         1086          648 
  242000    291.09996    290.01715   -28327.116    2685.7531    37060         1064          641 
  243000    298.16557    291.81891   -28315.544    2721.4665    37059         1063          632 
  244000    291.72439    296.50857   -28314.413    2727.4685    37058         1062          624 
  245000    297.85316    290.51075   -28279.034    2731.6427    37083         1087          633 
  246000    295.91479    295.00769   -28252.142    2728.8258    37057         1061          642 
  247000    282.79714    286.54838   -28237.532    2627.5586    37045         1049          607 
  248000     305.5022     295.9008   -28257.795    2780.9266    37073         1077          648 
  249000    311.23355    294.06419   -28336.226    2831.8503    37122         1126          674 
  250000    289.06071    295.01935   -28221.673    2737.4734    37088         1092          657 
  251000    287.44599    285.89668   -28248.546    2669.7557    37084         1088          650 
  252000     299.5974     284.2459   -28304.792     2664.271    37045         1049          629 
  253000    292.13037     295.0839    -28269.51    2743.2554    37086         1090          644 
  254000    297.58095    288.20704   -28228.526    2735.2187    37105         1109          630 
  255000       286.29    299.08763   -28203.551    2773.5597    37114         1118          653 
  256000    304.45188    288.18666   -28346.925    2753.2687    37099         1103          673 
  257000    287.37982    290.45958   -28213.554    2707.6939    37093         1097          674 
  258000    285.88776    300.08866     -28284.9    2749.3214    37078         1082          633 
  259000    302.53083    289.83781   -28238.255    2741.3465    37080         1084          634 
  260000    303.12025     294.4692   -28209.294    2762.4482    37072         1076          632 
  261000    281.04994    292.94618   -28200.445    2693.0801    37084         1088          645 
  262000     285.6312    292.08202   -28331.119    2725.6451    37113         1117          649 
  263000    287.99194    288.62158   -28182.179    2712.7235    37112         1116          638 
  264000    293.38075    298.37179   -28292.366    2798.9685    37118         1122          654 
  265000    286.51419    294.96682   -28229.637    2736.2737    37100         1104          665 
  266000    289.53063    289.38243   -28192.424    2715.8958    37104         1108          644 
  267000    291.63823    300.13337   -28267.014    2808.4455    37127         1131          666 
  268000    283.47911    296.05403   -28244.759    2723.0991    37088         1092          630 
  269000    287.16992    301.29156   -28231.698    2778.4008    37101         1105          637 
  270000    297.62271     293.4825   -28216.235    2790.8455    37130         1134          655 
  271000    298.35207    297.67009   -28215.679    2809.4598    37120         1124          646 
  272000    284.62442    288.11164   -28226.941    2716.4326    37133         1137          651 
  273000    288.23347    290.56883   -28243.084    2734.4056    37123         1127          651 
  274000    297.54688    289.63623   -28329.643    2737.8723    37097         1101          627 
  275000    287.33058    294.15579   -28213.181     2760.905    37130         1134          654 
  276000    291.56369    294.99449   -28113.409     2759.837    37108         1112          674 
  277000    296.29926    283.30173   -28191.882    2710.2804    37113         1117          671 
  278000    283.01697    296.05257   -28110.554     2696.275    37059         1063          618 
  279000    294.11017    297.98591    -28198.78    2751.0338    37066         1070          636 
  280000    297.35191    286.80343   -28166.218     2720.796    37097         1101          665 
  281000    297.31307    295.17579   -28145.181    2771.7646    37099         1103          647 
  282000     279.4283    294.66952   -28262.554    2662.6847    37042         1046          592 
  283000    290.36249    293.58121   -28207.313    2705.5276    37060         1064          628 
  284000    292.18973    287.79726   -28214.233    2687.2043    37073         1077          631 
  285000    305.98651    307.70673   -28199.802    2846.7487    37066         1070          612 
  286000    292.33864    293.84158   -28220.639    2726.7952    37075         1079          607 
  287000    294.19132    292.76936   -28199.385    2733.0406    37083         1087          611 
  288000    302.42704    289.75272   -28154.609    2757.3289    37101         1105          651 
  289000    296.21055    289.14097   -28207.549    2724.0455    37090         1094          641 
  290000    282.97559    290.26893   -28229.478    2683.9273    37086         1090          653 
  291000    291.92349    296.59352   -28252.836    2759.8746    37095         1099          625 
  292000    295.39405    291.86944   -28187.107    2762.5873    37117         1121          665 
  293000    299.75217      281.936   -28163.131    2708.0398    37109         1113          669 
  294000    299.11358    297.53939   -28055.728    2808.2422    37116         1120          642 
  295000    301.45971    295.44238   -28148.903    2789.0459    37099         1103          673 
  296000    282.53988    301.01945   -28157.029    2731.3904    37064         1068          660 
  297000    286.45099    298.80976    -28287.41    2733.0491    37070         1074          651 
  298000    302.35926    295.61283   -28191.423    2748.9596    37052         1056          636 
  299000     293.7417    306.27953   -28122.199    2798.9609    37067         1071          646 
  300000    297.86299    303.74818   -28225.679    2799.8894    37070         1074          645 
  301000    297.02249    301.06587   -28082.402     2790.799    37081         1085          659 
  302000    297.88274    307.16207    -28138.65     2801.051    37046         1050          637 
  303000      295.518    292.07688   -28192.711    2685.3214    37030         1034          631 
  304000    313.52039    290.89063   -28175.837    2714.8333    37007         1011          590 
  305000    304.64128    293.27885   -28177.073    2717.6195    37025         1029          615 
  306000    294.19647    292.86069   -28164.019    2725.1802    37072         1076          648 
  307000    306.80461    300.29802   -28213.931    2809.1597    37072         1076          657 
  308000    287.90354    285.75307    -28212.13    2661.5963    37071         1075          656 
  309000    289.52343    292.74668   -28214.393    2685.5192    37045         1049          615 
  310000    302.12434    290.12083   -28145.735     2717.069    37055         1059          645 
  311000    291.12506    288.61524   -28134.678     2638.423    37013         1017          583 
  312000    290.43273    300.15252   -28180.054    2722.0152    37030         1034          642 
  313000    286.01497      298.262   -28175.514    2703.8193    37039         1043          642 
  314000    298.69975    289.88587   -28257.513    2662.3813    37007         1011          611 
  315000    302.22003    289.06008   -28120.337    2703.6549    37043         1047          636 
  316000      293.823     288.1931   -28140.542    2701.0167    37080         1084          648 
  317000    288.19912    297.64642   -28138.837    2711.6273    37045         1049          610 
  318000     280.2084    291.52688   -28205.221    2660.7334    37060         1064          630 
  319000    300.61148    298.63332   -28265.579    2770.1833    37062         1066          639 
  320000    304.18644    284.04624    -28274.71     2689.572    37057         1061          611 
  321000    295.98968    296.68731   -28199.078    2758.4031    37078         1082          648 
  322000    287.46548    298.57682   -28116.334    2749.1007    37086         1090          647 
  323000     293.1122    297.68607   -28213.951    2770.9815    37095         1099          648 
  324000      299.622    297.42384   -28184.722    2790.7116    37094         1098          650 
  325000    295.49872     291.4473   -28238.365    2740.7189    37096         1100          672 
  326000    293.72669    295.65239   -28313.791    2800.7841    37142         1146          683 
  327000    275.81026    286.30753   -28177.038     2667.172    37122         1126          679 
  328000     292.2827    295.93397   -28193.017    2780.6488    37120         1124          663 
  329000    305.87575    294.01348   -28205.297    2774.3129    37079         1083          655 
  330000    295.92573    294.55518   -28128.055     2758.468    37092         1096          657 
  331000    301.45206    287.99118   -28222.715    2673.9239    37023         1027          596 
  332000    290.70524    295.99107   -28219.613    2719.4132    37057         1061          615 
  333000    295.05955    291.73583   -28245.733    2713.4656    37064         1068          623 
  334000    289.42578    293.64752     -28179.4    2713.3611    37071         1075          631 
  335000     291.6272    290.84096   -28204.114    2712.0706    37080         1084          658 
  336000      308.672    300.76566   -28248.649    2852.0683    37109         1113          670 
  337000    290.17949    288.01081   -28347.887    2694.7682    37086         1090          632 
  338000    296.96251    290.18026    -28234.58     2743.748    37099         1103          609 
  339000    313.04368    289.10384   -28157.328    2765.5456    37076         1080          640 
  340000    295.86844    283.13128   -28132.989    2655.6507    37054         1058          595 
  341000    283.32126    291.81994   -28154.899    2752.0524    37155         1159          700 
  342000     293.9082    293.99096   -28148.134    2788.9708    37140         1144          695 
  343000    300.90988    293.06777   -28171.246    2772.2756    37100         1104          659 
  344000     309.4186    296.61114   -28227.146     2819.372    37096         1100          650 
  345000    297.03443    291.49405   -28209.547    2733.5941    37081         1085          637 
  346000    296.16373    288.91694   -28294.088    2715.2629    37081         1085          638 
  347000    289.41795     289.8948   -28252.827     2681.074    37062         1066          596 
  348000    284.11308    302.69821   -28291.378    2785.3154    37110         1114          673 
  349000    286.55672    299.64389   -28218.706    2777.2093    37115         1119          651 
  350000    296.74481     282.7432   -28293.933    2723.2136    37130         1134          664 
  351000    296.44816    294.72172   -28213.079    2787.0184    37121         1125          667 
  352000    289.65866    289.88068   -28253.745    2736.9732    37125         1129          657 
  353000    289.74567    289.21887   -28262.702    2735.2616    37125         1129          640 
  354000    293.57457    299.76762   -28310.655    2789.2296    37101         1105          656 
  355000    292.36203    292.46269   -28237.027    2740.6867    37101         1105          646 
  356000    284.69183    301.03398   -28275.522    2747.8031    37077         1081          603 
  357000    296.29805    300.93427   -28246.356    2802.7068    37098         1102          629 
  358000     300.1253    293.25684   -28131.798    2766.3084    37092         1096          649 
  359000     297.4427     299.1382   -28249.339    2788.6301    37088         1092          638 
  360000    292.28025    294.55848   -28142.018    2720.4232    37062         1066          597 
  361000    299.28646    304.53442   -28208.564     2825.447    37087         1091          625 
  362000    292.71754    303.94878   -28221.411    2830.9603    37122         1126          661 
  363000    292.75057    288.54137   -28319.783    2747.7818    37135         1139          670 
  364000    285.62414    293.72727   -28176.179    2756.5949    37136         1140          687 
  365000    295.14932     288.2081   -28236.464    2751.1171    37131         1135          661 
  366000    309.74267    293.77735   -28232.857    2848.8699    37147         1151          668 
  367000    292.02965    296.96158   -28241.214    2793.4302    37132         1136          669 
  368000    297.49641    290.56328   -28260.164    2765.2129    37123         1127          685 
  369000    305.70311    296.62639   -28231.795    2811.6771    37103         1107          653 
  370000    285.18184    293.81192   -28091.593     2771.595    37155         1159          684 
  371000    303.35667    293.94658   -28253.126    2855.5729    37177         1181          693 
  372000    299.93507    302.09715   -28195.113    2890.0111    37174         1178          673 
  373000    289.73872    297.41122   -28246.543    2800.5925    37145         1149          643 
  374000    295.50024    292.12382   -28265.057     2763.411    37113         1117          640 
  375000    290.03604    300.63102   -28145.084    2797.7232    37117         1121          663 
  376000    292.60634    285.70765   -28203.356    2725.5173    37129         1133          662 
  377000    289.60228    285.56795   -28304.331    2700.8854    37114         1118          639 
  378000    308.32852    297.40822    -28274.98    2834.4963    37113         1117          673 
  379000    295.90446    288.95415   -28232.316    2715.0082    37083         1087          629 
  380000    297.71681    298.19141   -28310.107    2782.0637    37089         1093          649 
  381000    298.56595    303.30147   -28336.821    2822.1393    37096         1100          618 
  382000    284.25938    291.00702   -28208.463    2697.9608    37091         1095          652 
  383000    287.29872    296.49534   -28194.085    2726.2271    37074         1078          634 
  384000    301.16793    291.20575   -28186.411    2739.0665    37076         1080          654 
  385000    279.49524    294.78867    -28161.33    2707.6457    37095         1099          652 
  386000    295.27445    305.00993   -28294.516    2841.7864    37118         1122          653 
  387000    292.35516    295.62853   -28166.309    2790.4664    37136         1140          655 
  388000    297.01234     295.8922   -28252.053    2780.5436    37104         1108          655 
  389000    288.52258    293.93214   -28149.066    2755.9064    37121         1125          627 
  390000    280.16352     293.2606   -28203.611    2731.4483    37130         1134          651 
  391000     292.0795    294.50852   -28194.102    2814.7361    37173         1177          702 
  392000    295.77333    298.30366   -28130.381    2849.5781    37171         1175          704 
  393000    286.56977     290.5865    -28261.79    2749.8514    37147         1151          691 
  394000    295.69032    284.37226   -28201.822    2737.2676    37141         1145          685 
  395000    300.36971     291.8254   -28208.067     2752.719    37090         1094          642 
  396000    289.61969    285.25835   -28250.465    2687.5455    37101         1105          651 
  397000    277.47724    290.99393   -28174.596    2715.2373    37138         1142          678 
  398000    298.36822    291.86279   -28227.653    2777.5305    37123         1127          638 
  399000     284.4386    297.73133   -28237.458    2767.6628    37125         1129          659 
  400000    291.04719    300.60223   -28297.496    2796.0822    37112         1116          644 
  401000    299.40497    293.15713   -28319.799    2741.9159    37072         1076          622 
  402000    288.71111    286.79105   -28265.834    2669.8942    37071         1075          612 
  403000    296.06847    290.95654   -28275.897    2750.6601    37109         1113          648 
  404000      300.564    298.01221   -28228.063    2801.2697    37101         1105          630 
  405000    305.63292    299.42815    -28185.95    2821.1182    37094         1098          640 
  406000    289.56469    296.78445   -28318.826    2777.5235    37123         1127          644 
  407000    293.27255    295.46438   -28107.584    2749.5018    37087         1091          625 
  408000    294.06291    296.80186   -28179.944    2764.5274    37091         1095          636 
  409000    277.63565    286.16111   -28210.066    2594.2472    37026         1030          613 
  410000    313.38343    283.37882   -28169.314    2685.5214    37027         1031          628 
  411000     297.7346    294.90308   -28266.998    2739.9735    37061         1065          626 
  412000    299.83223    294.83644   -28216.687     2767.234    37086         1090          642 
  413000      288.423    294.67984   -28267.959    2741.9438    37099         1103          650 
  414000    298.65812    288.55585   -28253.145    2722.8623    37083         1087          637 
  415000    305.35602    290.95776   -28166.331    2748.7943    37073         1077          638 
  416000    290.54754    292.87846   -28115.839    2746.7999    37112         1116          660 
  417000    294.85415    297.05979   -28175.884    2764.5068    37087         1091          632 
  418000    294.72488    283.36045   -28242.959    2713.1797    37124         1128          663 
  419000    283.21779    295.40876   -28154.726    2725.6779    37096         1100          656 
  420000    300.92718    292.83088   -28140.631    2753.4727    37081         1085          604 
  421000    283.04523    297.11003   -28191.968     2717.094    37075         1079          594 
  422000    287.68102    287.14384   -28214.642    2695.4347    37104         1108          658 
  423000    306.38701    303.47932   -28190.336    2883.1313    37133         1137          662 
  424000    290.16128    295.62471   -28182.131     2750.683    37098         1102          627 
  425000    299.43225    290.33447   -28151.374    2762.1133    37113         1117          662 
  426000    296.79928     292.8448   -28258.515     2751.178    37091         1095          635 
  427000    312.57356    294.66367   -28146.733     2821.381    37102         1106          638 
  428000    299.49105    301.82695   -28248.528    2811.5012    37090         1094          648 
  429000    293.13869    293.91129   -28243.349    2770.9251    37119         1123          673 
  430000    287.86312    302.21533   -28145.561    2799.5097    37117         1121          676 
  431000    301.57046    295.66681   -28166.357    2773.7592    37082         1086          622 
  432000    287.43623    295.78742    -28183.47    2722.9758    37076         1080          635 
  433000    290.09984    290.28679   -28171.133    2689.0541    37065         1069          646 
  434000    291.58659    294.24769   -28208.675    2715.3285    37060         1064          611 
  435000    281.95722    297.38732   -28185.611    2725.5382    37087         1091          651 
  436000    291.27972    289.49167   -28251.591    2690.2301    37068         1072          641 
  437000    293.67424    296.04158   -28221.849    2766.5658    37097         1101          638 
  438000    292.46678    294.72695   -28254.463    2755.0963    37099         1103          656 
  439000    301.27426    286.96518   -28201.902    2716.7643    37078         1082          647 
  440000    284.96864    295.22548   -28264.784    2736.3095    37104         1108          676 
  441000    287.72722    298.35297   -28241.972     2790.055    37135         1139          688 
  442000    306.27955    298.73302   -28188.719    2870.0449    37151         1155          687 
  443000    291.88764    294.15559   -28182.642    2801.0912    37159         1163          702 
  444000    301.69129     293.8649   -28277.406    2811.7701    37136         1140          675 
  445000     303.7609    295.64202   -28074.338     2862.017    37170         1174          678 
  446000    293.81661    292.99843   -28164.311    2826.4871    37189         1193          705 
  447000    294.65051    292.41184   -28336.289    2796.0147    37156         1160          692 
  448000    286.25843    295.71567   -28226.959    2807.7248    37178         1182          709 
  449000    301.88134    296.56372   -28213.552    2815.7438    37120         1124          677 
  450000    301.45266    294.57963   -28312.293    2804.1832    37122         1126          687 
  451000    288.44149    298.36817   -28310.112    2755.8957    37091         1095          647 
  452000    300.39229    289.83256     -28306.4    2718.1337    37064         1068          636 
  453000    275.34324    293.09045   -28180.167    2667.3751    37075         1079          632 
  454000     293.3601    298.33317   -28143.248    2736.2031    37051         1055          643 
  455000    284.60628    287.78283   -28191.409    2624.6475    37028         1032          611 
  456000    300.92494    288.10222   -28126.245    2703.0712    37058         1062          630 
  457000    282.83352    288.20398   -28255.522    2636.8874    37045         1049          615 
  458000    299.21125    291.54327   -28286.611    2733.5814    37072         1076          629 
  459000    296.40569    298.19306   -28295.134    2769.8458    37076         1080          620 
  460000    290.40928     290.0492   -28338.786    2717.1841    37098         1102          658 
  461000    287.87245    281.76775   -28222.811    2649.8091    37088         1092          637 
  462000    304.28315    288.33339   -28230.804    2703.8171    37045         1049          634 
  463000    295.27753    295.68985   -28225.422    2758.3338    37087         1091          641 
  464000    285.90163    300.24552   -28221.923    2747.6186    37078         1082          635 
  465000    292.25448     285.3374   -28267.094    2736.9357    37147         1151          690 
  466000    288.15142    297.04275   -28213.578    2764.8653    37109         1113          651 
  467000    292.02813    284.95711   -28160.768    2690.3991    37096         1100          647 
  468000    298.91563    297.52155   -28288.285    2777.7461    37084         1088          647 
  469000    303.16056    300.60483   -28211.405    2811.2079    37084         1088          640 
  470000    295.65516    296.71749   -28275.641    2792.6847    37118         1122          655 
  471000    285.08409    285.84769   -28308.526    2711.1103    37141         1145          690 
  472000    294.01138    290.01751   -28213.232    2753.0065    37125         1129          684 
  473000    296.44574    290.94423   -28196.419    2747.0551    37104         1108          669 
  474000    294.01867    297.16708   -28100.399     2785.913    37112         1116          685 
  475000    294.83484    296.61434   -28227.594    2800.4715    37130         1134          707 
  476000     282.0643    295.26649    -28148.65    2729.5958    37106         1110          658 
  477000    301.69348    298.05894   -28247.031    2820.2419    37117         1121          683 
  478000    288.46971    286.25636   -28201.905    2725.9382    37140         1144          691 
  479000    289.31121    284.03927   -28295.089    2651.7757    37063         1067          613 
  480000     286.5399    293.08365   -28219.328    2679.5148    37044         1048          599 
  481000    273.25245    290.61495    -28233.64    2617.6666    37040         1044          606 
  482000    292.29075    294.66803   -28203.584     2705.903    37044         1048          616 
  483000    291.66342    301.44691   -28257.622    2748.2437    37048         1052          623 
  484000     308.2723    297.62648   -28173.033    2784.5991    37052         1056          626 
  485000    281.68511    286.65755   -28201.891    2617.4096    37036         1040          627 
  486000    286.06641    288.35453   -28164.885    2659.9867    37058         1062          630 
  487000    300.28055    284.27544   -28297.833    2695.1603    37076         1080          622 
  488000    288.10633    296.87188   -28292.219    2739.5387    37083         1087          637 
  489000    284.71036    292.84945   -28217.431    2720.1816    37103         1107          658 
  490000    294.12466    292.93144   -28153.939    2730.7527    37080         1084          636 
  491000    294.57985    288.91361   -28177.005    2710.3592    37082         1086          651 
  492000     287.0482    291.05815   -28219.757    2716.1176    37102         1106          683 
  493000    299.80251    296.77134   -28271.691    2800.8084    37110         1114          658 
  494000    301.41318     294.8439    -28315.17    2814.3167    37133         1137          691 
  495000    291.95874    292.50138   -28217.052    2728.7956    37087         1091          626 
  496000    287.52177    290.51515   -28196.688    2724.6871    37114         1118          656 
  497000    299.28802    291.96056   -28268.112    2798.7239    37142         1146          681 
  498000    297.81543    284.56794   -28167.217    2744.0836    37136         1140          657 
  499000    283.43004    294.53899   -28104.452     2753.985    37136         1140          679 
  500000    286.42425    293.32532   -28237.905    2741.0695    37117         1121          639 
Loop time of 99776.6 on 10 procs for 300000 steps with 37117 atoms

Performance: 0.260 ns/day, 92.386 hours/ns, 3.007 timesteps/s
94.9% CPU use with 10 MPI tasks x no OpenMP threads

MPI task timing breakdown:
Section |  min time  |  avg time  |  max time  |%varavg| %total
---------------------------------------------------------------
Pair    | 109.05     | 1337.4     | 6967.1     |6086.6 |  1.34
Bond    | 0.065048   | 0.089177   | 0.13378    |   6.2 |  0.00
Kspace  | 1056.1     | 6474.5     | 7657       |2658.2 |  6.49
Neigh   | 1357.8     | 1359.3     | 1360       |   2.2 |  1.36
Comm    | 74.273     | 223.54     | 356.53     | 712.7 |  0.22
Output  | 0.049172   | 0.051755   | 0.072295   |   3.0 |  0.00
Modify  | 90299      | 90374      | 90552      |  31.6 | 90.58
Other   |            | 7.607      |            |       |  0.01

Nlocal:    3711.7 ave 4982 max 3369 min
Histogram: 6 2 0 0 0 0 1 0 0 1
Nghost:    9721.5 ave 10785 max 8951 min
Histogram: 4 0 1 0 0 1 0 2 1 1
Neighs:    188015 ave 922502 max 18024 min
Histogram: 7 1 0 0 0 0 1 0 0 1

Total # of neighbors = 1880150
Ave neighs/atom = 50.6547
Ave special neighs/atom = 0.164884
Neighbor list builds = 615729
Dangerous builds = 0
write_data        C199_H2_1020watergcmc1ns.data
PPPM initialization ...
  using 12-bit tables for long-range coulomb (../kspace.cpp:321)
  G vector (1/distance) = 0.168895
  grid = 40 9 30
  stencil order = 5
  estimated absolute RMS force accuracy = 0.0285755
  estimated relative force accuracy = 8.60543e-05
  using double precision FFTs
  3d grid and FFT values/proc = 3640 1080
WARNING: Neighbor exclusions used with KSpace solver may give inconsistent Coulombic energies (../neighbor.cpp:472)
run               300000
PPPM initialization ...
  using 12-bit tables for long-range coulomb (../kspace.cpp:321)
  G vector (1/distance) = 0.168895
  grid = 40 9 30
  stencil order = 5
  estimated absolute RMS force accuracy = 0.0285755
  estimated relative force accuracy = 8.60543e-05
  using double precision FFTs
  3d grid and FFT values/proc = 3640 1080
WARNING: Neighbor exclusions used with KSpace solver may give inconsistent Coulombic energies (../neighbor.cpp:472)
Per MPI rank memory allocation (min/avg/max) = 9.979 | 10.79 | 13.91 Mbytes
Step c_mtem c_mwtem PotEng KinEng Atoms v_nH2 v_nbH2 
  500000    286.42425    293.32532   -28237.905    2741.0695    37117         1121          643 
  501000    289.71093     291.1584   -28257.649    2733.8195    37110         1114          637 
  502000    293.47995    297.69465   -28141.267     2814.282    37145         1149          667 
  503000     300.7275    299.78681   -28243.007    2844.3922    37137         1141          644 
  504000    292.47829    290.94787   -28279.156    2765.3203    37138         1142          658 
  505000    308.46762    293.89036    -28376.55    2840.1063    37142         1146          663 
  506000    293.47078    289.71054   -28170.085    2752.7044    37128         1132          684 
  507000    294.16106    293.85641   -28187.724    2757.7466    37103         1107          658 
  508000    295.75774    288.44387    -28244.64    2732.9761    37107         1111          664 
  509000     296.6499    290.29256   -28248.996    2723.3893    37078         1082          627 
  510000    292.60342    289.21148   -28182.401    2720.7018    37100         1104          650 
  511000    287.43948    286.07696   -28296.823    2680.3512    37095         1099          648 
  512000     296.6025     287.6642   -28210.952    2747.4841    37125         1129          667 
  513000    310.40472    285.24072   -28214.316    2770.4667    37116         1120          667 
  514000    292.00034    291.27807   -28222.889    2762.5208    37136         1140          655 
  515000    291.23934    297.00767   -28235.833    2786.2303    37125         1129          663 
  516000    290.15228    304.82564   -28293.426    2825.9355    37121         1125          653 
  517000    283.90752    290.69515   -28208.333    2702.7727    37102         1106          652 
  518000    294.59636    292.16236   -28208.344    2730.8771    37084         1088          656 
  519000    288.34089    291.65497   -28247.185    2703.8803    37079         1083          624 
  520000    276.08309    299.52481   -28133.627    2729.6743    37101         1105          654 
  521000    293.03813     291.7364   -28236.759    2761.5347    37125         1129          673 
  522000    293.52851    299.01982   -28266.312    2801.7924    37121         1125          681 
  523000    292.53319    302.07705   -28189.363    2804.1744    37102         1106          658 
  524000    294.51519    285.28645    -28137.19    2691.1145    37086         1090          640 
  525000    286.13243    295.02814   -28166.848     2735.339    37101         1105          656 
  526000    289.94032    297.35682   -28207.985    2714.2192    37045         1049          641 
  527000    290.58149     300.5765   -28200.933    2742.0192    37053         1057          642 
  528000    302.03141    292.44502   -28243.732    2719.6789    37043         1047          639 
  529000    297.53299    299.29501   -28276.765    2759.2052    37056         1060          639 
  530000      302.965    292.97938   -28311.762    2758.0161    37078         1082          645 
  531000    290.49513    301.23444     -28263.1    2791.0057    37105         1109          668 
  532000    284.98168    276.10223   -28286.555    2629.3093    37115         1119          639 
  533000    279.86294    302.02881    -28210.81    2771.2862    37118         1122          667 
  534000    298.31759    293.30512   -28291.318    2748.9504    37082         1086          638 
  535000    289.93562    301.42622   -28158.553    2746.8616    37055         1059          624 
  536000    296.39624    291.02235   -28165.116    2709.5323    37061         1065          618 
  537000    308.05158    292.41758   -28129.598    2758.7152    37065         1069          625 
  538000     286.0841    292.03233   -28244.522     2702.993    37084         1088          637 
  539000    298.19894    298.65027   -28257.747    2804.3439    37109         1113          677 
  540000     299.0995    295.71016   -28172.366    2763.9783    37080         1084          668 
  541000    287.06824    284.98975    -28102.11    2689.9343    37115         1119          674 
  542000    295.83877    297.56796   -28322.011    2788.6045    37107         1111          629 
  543000    300.27668    291.14304   -28287.383    2771.4673    37113         1117          626 
  544000    300.75479    294.95598   -28250.204    2799.2548    37118         1122          639 
  545000    302.53998    300.49005   -28192.638    2838.8557    37119         1123          674 
  546000    298.48197    295.93298   -28289.766    2797.4095    37118         1122          655 
  547000    292.85972    296.27673   -28209.645    2779.5646    37114         1118          627 
  548000     282.3119    300.05067   -28231.167    2796.5774    37148         1152          672 
  549000    283.96668    288.44392   -28151.684    2709.6381    37126         1130          669 
  550000    285.62025    294.64695   -28327.303    2774.8964    37149         1153          703 
  551000    296.84523    293.33307   -28184.878     2805.225    37151         1155          704 
  552000     301.4537    293.22655   -28266.535     2789.215    37116         1120          668 
  553000    289.94281    291.12888   -28230.671    2779.2065    37164         1168          671 
  554000    280.32613    291.93845   -28133.528    2731.4574    37142         1146          636 
  555000    290.86513    285.21951   -28196.225    2724.3994    37139         1143          674 
  556000    299.02219    287.35463   -28222.402    2745.9003    37117         1121          646 
  557000    291.11009    299.69451   -28332.044    2768.7788    37087         1091          620 
  558000    295.09743    295.34512    -28175.16    2748.0312    37079         1083          630 
  559000    291.10024    297.19782   -28229.956    2752.8805    37087         1091          636 
  560000    281.23698    298.86263   -28101.201    2757.2385    37118         1122          680 
  561000    305.57277    293.73173   -28217.126    2773.3791    37078         1082          632 
  562000     287.8796    289.22508   -28240.115    2711.6529    37106         1110          641 
  563000    288.04742    287.84241   -28260.397    2696.7542    37097         1101          645 
  564000    287.42675     297.3088   -28242.698    2696.8551    37033         1037          609 
  565000     289.4769    285.53269   -28311.553     2655.033    37061         1065          635 
  566000    296.30512    297.71809   -28215.229    2750.0131    37059         1063          622 
  567000    299.88561    299.41169    -28235.77    2772.9761    37061         1065          641 
  568000    300.54833    299.14504   -28310.118    2790.6294    37081         1085          619 
  569000    303.01973     286.6807   -28190.665    2710.4677    37067         1071          588 
  570000      287.318    291.48969   -28286.815    2721.6852    37103         1107          625 
  571000    312.00252    293.08177   -28211.831    2807.5143    37097         1101          642 
  572000    292.63728    286.39143   -28223.561    2695.8037    37090         1094          647 
  573000    286.40486    297.91162    -28214.82    2776.7029    37124         1128          676 
  574000    291.62407    282.74755   -28207.778    2667.7693    37084         1088          646 
  575000    293.57527    289.04086   -28308.528    2721.0073    37095         1099          643 
  576000    294.99374    292.29993   -28189.114    2728.0914    37077         1081          648 
  577000    299.18187     289.2585   -28161.086    2721.4718    37075         1079          642 
  578000    299.83018    295.08037   -28276.213    2758.4982    37075         1079          624 
  579000    294.35009    284.02626   -28246.647    2677.9337    37080         1084          633 
  580000    297.38946    301.36728   -28228.163    2814.3694    37102         1106          678 
  581000     288.1008    299.39363    -28251.19    2726.2908    37051         1055          638 
  582000    292.28725    289.68146   -28183.401    2698.0361    37072         1076          645 
  583000    294.41475    291.87377   -28386.408    2741.5381    37096         1100          662 
  584000    298.21567    297.23521    -28205.52       2768.6    37079         1083          629 
  585000    292.03247    290.65714   -28209.447    2708.0932    37077         1081          633 
  586000    293.27419    283.26452   -28273.793    2687.5503    37100         1104          651 
  587000    301.82743     289.0981   -28164.565    2712.3634    37058         1062          615 
  588000    283.26034    298.42604   -28155.073    2751.1484    37106         1110          695 
  589000    290.82389    292.12268   -28263.463    2733.0533    37100         1104          664 
  590000    284.62826     294.0051   -28177.482    2701.7245    37074         1078          646 
  591000     299.3892    303.31747   -28190.587    2816.3498    37085         1089          646 
  592000    293.72475    297.10543   -28216.323    2764.9767    37090         1094          646 
  593000    288.10082    301.38259   -28191.275    2756.7461    37070         1074          631 
  594000    300.05833    304.31157    -28256.79    2813.8307    37071         1075          631 
  595000    290.04447     297.8678   -28169.167     2735.324    37064         1068          650 
  596000    293.12144    292.73435    -28277.65    2709.9098    37061         1065          623 
  597000    311.65637    297.55747   -28208.608    2815.9232    37080         1084          642 
  598000    286.26446    295.33246       -28213    2705.7815    37064         1068          624 
  599000    293.67392     290.8073    -28220.17    2723.1862    37088         1092          655 
  600000    300.27474    291.20455   -28141.103    2758.4287    37101         1105          659 
  601000    297.96178    298.11297   -28189.776    2819.3585    37128         1132          663 
  602000    303.57824    284.34394   -28178.308    2728.6506    37100         1104          677 
  603000    287.63928    299.48355    -28246.83    2756.4261    37087         1091          637 
  604000    288.30302    297.06999   -28287.417    2747.9773    37091         1095          634 
  605000    294.06187     297.9892   -28277.752     2756.609    37071         1075          615 
  606000    285.05145    293.03805   -28214.229     2727.823    37108         1112          656 
  607000    305.30232    303.07848   -28308.672    2843.4075    37096         1100          628 
  608000    291.51348    291.80234   -28316.174    2730.2513    37096         1100          631 
  609000    290.41685     296.4219    -28219.81    2751.5204    37092         1096          627 
  610000    291.59007    294.79875   -28249.069    2718.1787    37060         1064          613 
  611000    281.20493    296.27252   -28238.277    2698.9869    37068         1072          628 
  612000    300.07537     300.8618   -28275.058    2783.5107    37063         1067          644 
  613000    296.55959    283.93154    -28109.69    2684.5119    37080         1084          620 
  614000    278.67637     295.7192   -28187.392    2705.7492    37085         1089          647 
  615000    283.81768    291.25256   -28198.008    2705.3546    37101         1105          654 
  616000    286.73518    292.71401   -28130.494    2721.8597    37098         1102          668 
  617000    285.30419    294.62165   -28142.071    2715.5759    37084         1088          650 
  618000    308.25911    291.11783   -28209.063    2780.6846    37095         1099          664 
  619000    287.79486    298.67628   -28208.708    2799.2819    37141         1145          708 
  620000    290.30924    294.20629   -28244.243    2775.8586    37138         1142          704 
  621000    268.87514    300.09998   -28218.078    2710.3594    37102         1106          662 
  622000    287.86568    297.45688   -28163.259    2791.8145    37137         1141          680 
  623000    298.50079    301.21306   -28230.416    2823.1564    37107         1111          656 
  624000     294.3599    303.52193   -28175.016    2797.2782    37079         1083          637 
  625000      289.555    283.91018   -28257.274    2630.0747    37044         1048          615 
  626000    309.20794    291.69031   -28257.459    2749.3084    37055         1059          629 
  627000    290.41247    288.25427   -28267.969    2681.5814    37069         1073          636 
  628000    290.38226     284.6257   -28193.331    2679.5551    37092         1096          644 
  629000    283.04633    292.37083   -28167.524    2729.1723    37125         1129          716 
  630000     285.9202    278.09438   -28288.562    2643.9582    37115         1119          666 
  631000    293.38612    302.17948   -28155.657    2831.5935    37133         1137          673 
  632000    293.14254    296.77857   -28155.643    2803.8201    37138         1142          667 
  633000    293.88187    295.31287    -28144.84    2789.5836    37132         1136          674 
  634000    288.85765    294.55169   -28211.841    2759.1811    37120         1124          671 
  635000    294.99023    285.74352   -28175.313     2724.143    37118         1122          634 
  636000    296.04439    290.06571    -28206.99    2757.3193    37123         1127          676 
  637000    300.80881    290.21775   -28126.876    2743.9391    37089         1093          640 
  638000    284.76973    290.15605   -28182.658    2670.8156    37064         1068          635 
  639000    292.12399    296.70077   -28172.712    2716.7969    37045         1049          628 
  640000    295.20654    286.87415   -28239.496    2666.5729    37045         1049          630 
  641000    290.29619    287.83797   -28163.125    2688.4398    37079         1083          646 
  642000    299.36802    301.39419   -28130.649    2781.0415    37059         1063          632 
  643000    292.48766    293.92554   -28144.045    2727.1808    37070         1074          645 
  644000    295.03175    295.74522   -28135.813    2748.9388    37074         1078          654 
  645000    295.99808    290.22395   -28162.874    2733.0344    37092         1096          648 
  646000    293.13213    296.92017   -28205.796    2753.8245    37081         1085          622 
  647000    266.73409    288.09761   -28268.985     2637.187    37110         1114          637 
  648000    292.81184    291.35421   -28251.357    2735.5857    37101         1105          664 
  649000    296.27583    303.66791   -28189.222    2789.7353    37063         1067          649 
  650000    290.43802     294.1025   -28171.633    2715.6868    37067         1071          627 
  651000    302.21773    293.57292   -28145.163    2733.2932    37050         1054          645 
  652000    278.62418    287.18051   -28223.693    2632.2444    37063         1067          650 
  653000    288.90663    298.15045   -28227.844    2748.2294    37083         1087          637 
  654000    284.10128     293.2428   -28223.906    2699.0348    37076         1080          639 
  655000    302.45258    285.49824   -28247.787    2727.1154    37094         1098          648 
  656000    298.36468    292.64745   -28182.868    2750.3732    37088         1092          647 
  657000    293.68162    288.01043   -28281.836    2706.3224    37087         1091          657 
  658000    299.11943    291.67733   -28263.699    2702.1782    37038         1042          626 
  659000    286.06396    289.33251   -28300.409    2662.9044    37054         1058          618 
  660000    296.37883    297.72629   -28255.533    2768.3106    37081         1085          624 
  661000    304.17211    292.85497   -28248.049    2742.6265    37057         1061          633 
  662000    297.67855    289.36971   -28210.949    2727.0379    37087         1091          652 
  663000    288.35316    300.75406   -28163.204    2794.5364    37117         1121          641 
  664000    310.87924    290.33483   -28187.139    2828.7759    37143         1147          675 
  665000    292.37216     289.0889    -28252.83    2764.3714    37149         1153          684 
  666000    292.96424     291.8935   -28203.847    2751.8002    37115         1119          681 
  667000      300.497    299.12741   -28133.976    2812.4488    37105         1109          658 
  668000    292.09536    295.42645   -28242.099    2730.1748    37070         1074          622 
  669000    291.47378    295.01936   -28092.071    2763.4919    37113         1117          652 
  670000    303.42816    289.73735   -28187.081     2766.709    37107         1111          663 
  671000    285.82343    306.72789   -28230.797    2813.1653    37110         1114          671 
  672000    282.29979    292.69812   -28263.093    2706.2119    37096         1100          641 
  673000    296.21871    296.51732   -28277.027    2783.2916    37106         1110          659 
  674000    292.59186    296.68033   -28217.223    2775.2637    37110         1114          639 
  675000    288.00501    292.91298   -28175.863    2750.0114    37126         1130          650 
  676000     292.3834    293.93792   -28272.024    2788.3926    37145         1149          687 
  677000    290.72653    292.47794   -28305.827    2757.6812    37126         1130          656 
  678000    280.84855    295.48556   -28292.077    2739.1038    37120         1124          648 
  679000    293.08676    298.99246   -28205.706    2780.4999    37097         1101          619 
  680000    290.11632     292.3831   -28162.772    2730.4303    37093         1097          606 
  681000    295.77118    281.44768   -28127.029    2668.7625    37081         1085          630 
  682000    296.44372    297.79241   -28165.603    2784.7198    37099         1103          647 
  683000    284.26769     291.7974   -28290.327    2701.0204    37091         1095          649 
  684000    290.29802    293.67882   -28236.733    2711.1328    37066         1070          606 
  685000    307.76207    298.92683    -28248.69    2813.7344    37078         1082          633 
  686000    298.32979    286.18006   -28266.371    2703.3971    37076         1080          637 
  687000    295.04503    294.73803   -28267.022    2751.3021    37087         1091          641 
  688000    298.78567    289.33481   -28265.633    2735.1152    37092         1096          661 
  689000    293.41148    292.69504   -28231.896    2740.9816    37096         1100          626 
  690000    301.55325    292.27828   -28282.921    2771.3965    37102         1106          661 
  691000    305.99708    301.21052   -28250.691    2822.6643    37083         1087          633 
  692000    302.05801      289.525   -28267.883    2759.1367    37103         1107          627 
  693000    297.74714    298.83525   -28191.798    2811.0067    37116         1120          670 
  694000    291.89474    294.76108   -28154.163    2785.2461    37137         1141          698 
  695000    291.86909    288.95911   -28243.806    2716.6014    37098         1102          652 
  696000     291.9721    293.59398   -28253.106    2731.8387    37082         1086          637 
  697000    279.16743    287.35444   -28144.475    2657.9043    37090         1094          614 
  698000    287.08501     291.1092   -28212.949    2717.3158    37102         1106          657 
  699000    293.33917    285.36872   -28166.532    2690.3531    37089         1093          643 
  700000    301.34388    287.32128   -28205.688    2732.4495    37093         1097          637 
  701000    282.97892      296.266   -28270.287    2703.6003    37067         1071          650 
  702000     307.6599    292.78121   -28232.578    2780.6248    37088         1092          665 
  703000    276.53335    294.41049   -28227.215    2692.0899    37090         1094          642 
  704000    303.30827     300.1842   -28199.838    2796.3573    37071         1075          622 
  705000    310.39962    295.15128   -28206.891    2835.2533    37122         1126          659 
  706000    296.22198    289.56137   -28333.815    2701.4442    37063         1067          615 
  707000    276.41744    295.94043    -28260.49    2696.6228    37085         1089          655 
  708000    288.49592    298.39159   -28236.411    2734.9525    37066         1070          629 
  709000    290.99855    294.45556   -28326.678    2736.2049    37087         1091          656 
  710000    303.16477    303.64769    -28265.38    2845.4687    37102         1106          653 
  711000    304.86274    297.13484   -28257.662    2816.4801    37107         1111          667 
  712000    290.86669    293.55265   -28298.099    2767.2923    37130         1134          654 
  713000    277.97948    301.59606   -28298.618     2758.297    37112         1116          649 
  714000    301.81996    292.32797   -28260.186    2780.9351    37112         1116          663 
  715000     302.5945    297.40648   -28212.996    2805.6905    37102         1106          656 
  716000    293.86729    299.06135   -28244.486    2800.3474    37118         1122          686 
  717000    299.98448    297.01828   -28223.371    2808.8251    37119         1123          636 
  718000    289.99524    284.42236   -28141.836    2701.0678    37121         1125          676 
  719000    296.48171    287.44944   -28183.664     2718.413    37095         1099          654 
  720000      287.301    297.37959    -28135.02    2708.8998    37048         1052          615 
  721000    291.02655    286.38508   -28217.791    2670.2913    37068         1072          614 
  722000    295.73397    290.50646   -28245.328    2740.6042    37102         1106          616 
  723000    298.81288    294.04433   -28262.276    2783.8169    37114         1118          651 
  724000    289.86844    293.02373   -28228.167    2774.9132    37145         1149          687 
  725000    290.69082    296.43778   -28146.781    2782.2683    37125         1129          672 
  726000    296.77627    293.94748   -28167.037    2755.6731    37090         1094          636 
  727000     292.1406    293.29309   -28238.806    2766.2066    37123         1127          675 
  728000    290.38808    299.54982   -28232.462    2789.4156    37114         1118          658 
  729000    279.57756    295.50712   -28244.048    2714.9978    37099         1103          626 
  730000    288.54776    287.58453    -28249.69    2691.8414    37093         1097          627 
  731000    290.76582    291.09461   -28242.535    2722.1811    37094         1098          631 
  732000    282.79226     288.1897   -28208.982    2673.8771    37090         1094          639 
  733000    288.57596    293.31465   -28176.813    2709.8779    37072         1076          651 
  734000    283.18387    283.66028   -28181.026    2614.0391    37049         1053          616 
  735000    292.32507    289.12769   -28224.229     2671.131    37044         1048          606 
  736000    292.88073    282.89217   -28201.414    2658.7367    37072         1076          646 
  737000    287.32578    286.98938   -28255.121    2674.5765    37080         1084          663 
  738000    303.70689    302.20623    -28268.29    2827.1009    37089         1093          647 
  739000    293.71695    295.04999   -28149.397    2782.1312    37124         1128          668 
  740000    292.72788    296.54497   -28257.883    2788.7407    37125         1129          659 
  741000     285.2953    291.40331   -28157.672    2745.1312    37140         1144          684 
  742000    284.31313    281.02465   -28192.985    2631.1563    37085         1089          638 
  743000    291.82154    301.64223   -28146.743    2772.1911    37075         1079          637 
  744000    283.45067    293.55312    -28223.38    2693.8009    37072         1076          616 
  745000    279.46498    296.68662   -28220.765    2723.1709    37100         1104          648 
  746000    295.16135     296.3848   -28180.599    2752.6518    37076         1080          628 
  747000    286.50465    297.10212    -28239.01     2715.245    37061         1065          621 
  748000    285.46739    292.50974   -28326.303    2679.4252    37055         1059          632 
  749000    303.16345    292.35436   -28147.854    2738.0867    37056         1060          641 
  750000    285.28396    297.17641   -28306.038    2723.2703    37071         1075          642 
  751000    300.36372    293.42332    -28260.07    2746.5066    37069         1073          644 
  752000    295.61753    291.78198   -28287.746    2699.0166    37046         1050          628 
  753000    294.38021    297.98925   -28206.022    2723.4927    37034         1038          612 
  754000    296.71869    298.99228   -28262.655    2760.6466    37063         1067          650 
  755000    282.19612    291.96425   -28257.759    2681.6934    37074         1078          623 
  756000    279.07799    274.96835   -28135.228    2571.3414    37076         1080          615 
  757000    299.11607    295.23209   -28177.462    2769.4069    37090         1094          628 
  758000    294.04844    291.73211   -28244.746    2729.2182    37084         1088          666 
  759000    288.14824    298.97486   -28247.746    2772.7508    37105         1109          660 
  760000    306.60829    288.20492   -28206.806    2783.2628    37123         1127          664 
  761000    290.66311    297.65096   -28249.732    2748.9615    37081         1085          658 
  762000    294.12048    290.89191    -28285.83    2694.2207    37053         1057          605 
  763000    295.17459     291.6696   -28236.194    2743.3993    37099         1103          670 
  764000    284.70695    284.89946   -28188.432    2666.9592    37096         1100          652 
  765000    283.13282    285.98567   -28186.984    2644.7597    37070         1074          641 
  766000    299.53827    297.82242   -28191.258    2735.0033    37031         1035          623 
  767000    302.10535    291.51895   -28326.794    2693.7776    37019         1023          591 
  768000    281.51491    293.30984   -28232.169    2671.1566    37055         1059          606 
  769000    292.78296    296.25342   -28103.515     2760.719    37094         1098          630 
  770000    297.09552    293.34814   -28243.721    2758.8413    37097         1101          631 
  771000      292.304    298.90761   -28199.027    2803.3131    37126         1130          682 
  772000    290.78687    297.88567   -28300.068    2779.0924    37114         1118          677 
  773000    295.27979    295.94901   -28225.597    2742.6237    37069         1073          641 
  774000    287.20261    290.24112   -28277.136    2711.6678    37102         1106          706 
  775000    295.71345    295.76547   -28270.481    2759.6558    37087         1091          644 
  776000    292.48765    298.26124   -28255.386    2714.9724    37030         1034          592 
  777000    293.74145    285.29194   -28152.571    2670.4977    37064         1068          611 
  778000    303.58117    279.14329   -28210.928    2669.6695    37072         1076          629 
  779000    301.36344    290.24098   -28240.858    2750.7444    37095         1099          650 
  780000    280.72364    292.52975    -28277.19    2679.6965    37073         1077          643 
  781000     302.3908    284.09037   -28159.692    2693.2115    37069         1073          649 
  782000    293.92127    293.02661    -28198.25    2746.3229    37098         1102          653 
  783000     283.2688    289.46122   -28215.627    2705.7327    37116         1120          665 
  784000    289.45642    290.11275   -28198.733    2745.7538    37132         1136          694 
  785000    297.49467    288.32306    -28279.32    2753.7887    37126         1130          662 
  786000    299.80189    294.51015   -28249.101    2803.8019    37128         1132          670 
  787000    310.47379    295.47823   -28230.658    2847.4202    37130         1134          670 
  788000    288.41496    298.03202   -28125.635    2781.0444    37122         1126          667 
  789000    282.70038    305.41199   -28214.512    2758.9913    37067         1071          623 
  790000    299.99644    299.06998   -28202.567    2795.5329    37088         1092          639 
  791000    286.73404    294.98028   -28268.063    2721.7099    37082         1086          640 
  792000     301.1789    291.71703   -28267.016     2772.075    37107         1111          645 
  793000    292.30621    292.38852   -28217.236    2753.2313    37115         1119          647 
  794000    285.22872    295.73261   -28225.025    2746.7446    37112         1116          647 
  795000     293.3581    289.79073   -28195.904    2739.3868    37113         1117          633 
  796000    290.18508    297.78857   -28227.126    2773.2754    37109         1113          645 
  797000    288.80885    293.72799       -28181     2718.039    37080         1084          631 
  798000    304.03603    305.32288   -28280.952    2834.2723    37075         1079          644 
  799000    294.35449    286.38824   -28242.525    2703.2762    37092         1096          643 
  800000    287.41152    285.74399   -28220.036       2663.6    37078         1082          629 
Loop time of 74971.1 on 10 procs for 300000 steps with 37078 atoms

Performance: 0.346 ns/day, 69.418 hours/ns, 4.002 timesteps/s
95.6% CPU use with 10 MPI tasks x no OpenMP threads

MPI task timing breakdown:
Section |  min time  |  avg time  |  max time  |%varavg| %total
---------------------------------------------------------------
Pair    | 104.63     | 1108.1     | 5309.7     |5099.9 |  1.48
Bond    | 0.066609   | 0.081742   | 0.094362   |   2.7 |  0.00
Kspace  | 764.1      | 4907.7     | 5905.5     |2384.1 |  6.55
Neigh   | 1007.5     | 1008.2     | 1008.7     |   1.3 |  1.34
Comm    | 62.317     | 132.67     | 179.9      | 340.3 |  0.18
Output  | 0.043639   | 0.045402   | 0.059786   |   2.3 |  0.00
Modify  | 67779      | 67807      | 67859      |  11.8 | 90.44
Other   |            | 6.798      |            |       |  0.01

Nlocal:    3707.8 ave 4952 max 3352 min
Histogram: 6 2 0 0 0 0 1 0 0 1
Nghost:    9705.5 ave 10766 max 8928 min
Histogram: 4 0 1 0 0 1 0 2 1 1
Neighs:    186673 ave 897714 max 16176 min
Histogram: 7 1 0 0 0 0 1 0 0 1

Total # of neighbors = 1866727
Ave neighs/atom = 50.3459
Ave special neighs/atom = 0.165057
Neighbor list builds = 615683
Dangerous builds = 0
write_data        C199_H2_1020watergcmc1.3ns.data
PPPM initialization ...
  using 12-bit tables for long-range coulomb (../kspace.cpp:321)
  G vector (1/distance) = 0.168895
  grid = 40 9 30
  stencil order = 5
  estimated absolute RMS force accuracy = 0.0285905
  estimated relative force accuracy = 8.60996e-05
  using double precision FFTs
  3d grid and FFT values/proc = 3640 1080
WARNING: Neighbor exclusions used with KSpace solver may give inconsistent Coulombic energies (../neighbor.cpp:472)
run               300000
PPPM initialization ...
  using 12-bit tables for long-range coulomb (../kspace.cpp:321)
  G vector (1/distance) = 0.168895
  grid = 40 9 30
  stencil order = 5
  estimated absolute RMS force accuracy = 0.0285905
  estimated relative force accuracy = 8.60996e-05
  using double precision FFTs
  3d grid and FFT values/proc = 3640 1080
WARNING: Neighbor exclusions used with KSpace solver may give inconsistent Coulombic energies (../neighbor.cpp:472)
Per MPI rank memory allocation (min/avg/max) = 10.38 | 11.19 | 14.31 Mbytes
Step c_mtem c_mwtem PotEng KinEng Atoms v_nH2 v_nbH2 
  800000    287.41152    285.74399   -28220.036       2663.6    37078         1082          631 
  801000    282.37547    297.73264   -28209.795    2718.6753    37076         1080          640 
  802000    299.41731    293.76607   -28182.759    2723.7383    37048         1052          622 
  803000     295.9087    292.80309    -28159.02    2704.6778    37045         1049          630 
  804000     281.2967    296.59306   -28209.919    2657.4274    37014         1018          596 
  805000    289.13049    301.30274    -28125.77    2727.7995    37035         1039          587 
  806000    297.52742    295.46759   -28218.096    2729.0993    37048         1052          607 
  807000    290.68904    298.70983   -28183.305    2707.7865    37023         1027          608 
  808000    292.47164     297.9004   -28295.951    2725.3992    37043         1047          612 
  809000    294.68546     281.7772   -28230.769    2645.2865    37058         1062          620 
  810000    301.15812    293.17092   -28168.871    2726.0177    37048         1052          624 
  811000    293.68459    283.75549   -28184.021    2658.6519    37062         1066          650 
  812000    288.48991    297.95555   -28229.491    2748.6568    37085         1089          652 
  813000    293.85148    300.30912   -28100.422    2785.0164    37092         1096          670 
  814000    294.74228    296.58725    -28252.04    2744.2615    37067         1071          623 
  815000    290.32078    297.73559   -28203.877    2736.3115    37067         1071          631 
  816000    284.70873    281.19798   -28201.156    2629.9763    37080         1084          659 
  817000    288.76369    298.59645   -28253.007    2757.0182    37086         1090          635 
  818000    308.05784    283.34462   -28194.068    2741.0713    37105         1109          675 
  819000    291.50017    290.76161   -28174.707    2722.9813    37096         1100          632 
  820000    294.45855      289.807   -28165.699    2769.7771    37142         1146          664 
  821000    294.66887    296.84563    -28206.64    2831.4013    37163         1167          705 
  822000    294.84948    291.13095   -28198.743    2790.6246    37157         1161          693 
  823000    285.52866    282.07161   -28200.222    2709.3535    37164         1168          707 
  824000    284.55475    293.50795   -28227.694    2774.3869    37162         1166          696 
  825000    296.74481    293.18394   -28190.203    2813.2849    37159         1163          682 
  826000    303.60059    285.79161   -28198.104    2731.5364    37095         1099          641 
  827000    304.97518    281.60694   -28174.329    2704.6589    37088         1092          654 
  828000    300.14902    287.54464   -28273.622    2714.6803    37077         1081          617 
  829000    296.51635    284.04578   -28173.413     2675.725    37067         1071          643 
  830000    300.30154    289.10304    -28153.93    2665.9382    37009         1013          585 
  831000    282.76664    293.42387   -28181.711    2667.5381    37043         1047          621 
  832000    300.70005    294.60466   -28234.582    2743.3246    37059         1063          642 
  833000    295.81145    290.72559     -28201.9    2673.2542    37022         1026          599 
  834000    285.00554    290.30466    -28238.92    2620.1155    37004         1008          586 
  835000    290.26373    301.42069   -28146.152    2733.8054    37038         1042          609 
  836000     297.4295     303.0644   -28176.151    2779.9757    37053         1057          630 
  837000    300.02503    290.42646   -28190.991    2756.3146    37100         1104          653 
  838000    288.48642    290.67737   -28243.615    2703.5881    37083         1087          627 
  839000    288.51988     284.0386   -28196.837     2659.095    37080         1084          661 
  840000    294.60772    292.98429    -28173.22    2714.4074    37058         1062          635 
  841000    283.72237    295.00375   -28244.049    2722.6855    37095         1099          657 
  842000    286.70688    295.67009   -28207.703    2748.1189    37109         1113          658 
  843000    293.93362    297.85577   -28246.302    2790.8601    37115         1119          651 
  844000    296.14336    288.18436   -28194.172    2753.4192    37131         1135          681 
  845000    303.65583     289.6094   -28247.018    2771.2816    37113         1117          651 
  846000    289.89102       286.28   -28253.546    2710.0935    37118         1122          672 
  847000    301.01615    288.64312    -28217.97    2749.3086    37103         1107          666 
  848000    300.43664     294.2568   -28212.702    2792.8424    37114         1118          665 
  849000    289.37769    293.71159   -28199.553    2723.1945    37081         1085          635 
  850000    293.09583    295.87558   -28255.742    2782.2121    37121         1125          657 
  851000    297.25522    285.19745   -28247.039     2695.408    37080         1084          645 
  852000    291.87946    290.47909   -28223.263    2709.1299    37079         1083          635 
  853000     285.5223    286.28564   -28321.078    2686.6776    37106         1110          654 
  854000    301.15141    294.45267   -28179.011    2757.3381    37073         1077          649 
  855000    287.22905    291.97367   -28202.967    2703.7089    37081         1085          651 
  856000    291.19789    286.33566   -28247.516    2655.1569    37047         1051          603 
  857000    296.40335    286.88443    -28204.45    2662.4805    37035         1039          603 
  858000    301.65427    288.91077   -28132.699    2700.4386    37046         1050          609 
  859000      309.498    297.41994   -28213.244    2780.5538    37049         1053          627 
  860000    290.70824    287.35456   -28244.189    2664.2833    37053         1057          615 
  861000    284.29183    291.52529   -28205.393     2669.055    37055         1059          621 
  862000    292.71117    286.43398   -28190.996    2687.2868    37081         1085          620 
  863000    294.02116    298.95253   -28206.892    2813.1005    37132         1136          655 
  864000    288.22565    295.33811   -28185.487    2770.0172    37129         1133          676 
  865000    291.64812    286.04875   -28202.028    2714.6604    37117         1121          665 
  866000    297.42813    292.08984   -28212.596    2780.0583    37128         1132          649 
  867000    294.84944    297.09575   -28222.065    2791.5692    37117         1121          677 
  868000    289.69901    297.68514   -28158.753    2757.5739    37094         1098          650 
  869000    288.44454    292.89208   -28289.261    2701.1281    37067         1071          636 
  870000     286.6112    299.19282   -28209.151    2741.3565    37076         1080          652 
  871000    299.36882    289.11845    -28055.87    2673.5032    37023         1027          637 
  872000    301.67995    295.62944   -28134.247    2739.9124    37044         1048          625 
  873000    293.47592    298.05919   -28148.684    2748.5428    37065         1069          615 
  874000    304.61517    297.03339   -28206.734    2762.3199    37049         1053          618 
  875000    291.46743    299.27828   -28220.987     2759.968    37078         1082          640 
  876000    286.40531    295.61289   -28178.295      2710.65    37066         1070          618 
  877000    288.42271     296.3106   -28222.843    2723.7774    37069         1073          645 
  878000    274.64334    282.73152   -28197.002    2599.0297    37070         1074          642 
  879000    294.74218     294.8064   -28223.549    2758.4313    37095         1099          659 
  880000    301.39245    286.02957    -28231.01    2745.5403    37116         1120          672 
  881000     292.6735    285.42864   -28240.901    2673.4329    37071         1075          627 
  882000    288.66246    298.56403   -28152.854    2742.5236    37074         1078          641 
  883000     299.9377      298.968    -28291.65     2792.476    37087         1091          653 
  884000    291.47432    291.21887   -28273.341    2717.1021    37086         1090          612 
  885000    283.69762    294.80647   -28145.982     2695.254    37063         1067          653 
  886000    299.66273    293.19523   -28239.076    2705.0537    37028         1032          607 
  887000    287.44438    289.46936   -28289.814    2678.7085    37068         1072          642 
  888000    290.07356     295.8127   -28316.981    2735.6775    37081         1085          642 
  889000    285.34908    292.48361   -28172.725    2700.2144    37079         1083          639 
  890000    288.39771    293.55294   -28282.408    2716.8094    37080         1084          661 
  891000    291.83349    302.26181   -28205.476    2777.0058    37076         1080          636 
  892000    298.01705    282.80849   -28208.598    2677.1034    37075         1079          624 
  893000    286.31647     291.7176    -28197.72    2694.8798    37076         1080          638 
  894000    301.42602    289.07858   -28187.848    2744.4029    37094         1098          646 
  895000    298.49159      283.898   -28261.303    2674.5962    37063         1067          623 
  896000    284.78011    296.45398   -28281.161    2701.0754    37056         1060          614 
  897000    287.97582    298.80867   -28278.596    2715.5973    37043         1047          580 
  898000    289.24582    295.87092   -28165.208    2756.2391    37105         1109          642 
  899000    287.43873     292.3085    -28257.41    2738.0786    37115         1119          658 
  900000    282.00314    292.96935   -28188.115    2725.7556    37119         1123          654 
  901000    283.41489    294.03738   -28300.405    2723.9714    37105         1109          645 
  902000    294.78392    292.15066   -28140.916    2756.5464    37111         1115          645 
  903000    288.80821    287.59095   -28141.269    2721.6617    37127         1131          701 
  904000    299.91176    298.83545   -28218.144    2831.4421    37131         1135          691 
  905000    311.30612    288.63723   -28196.385    2804.9697    37128         1132          663 
  906000    291.00849    285.54897   -28233.035    2745.5315    37160         1164          690 
  907000    292.68358    291.59247   -28257.481    2752.3651    37119         1123          680 
  908000    298.57242    291.21204   -28308.093    2775.6712    37125         1129          664 
  909000    300.64069    299.01378   -28261.666    2812.3588    37105         1109          658 
  910000      295.013    299.79591   -28087.865    2790.3558    37096         1100          652 
  911000    281.06934    286.96924    -28159.04    2711.0128    37147         1151          668 
  912000    292.56797    283.89442   -28244.145    2701.7251    37115         1119          649 
  913000    285.30391    298.60724   -28222.057     2774.947    37124         1128          663 
  914000    299.03158    290.39736   -28265.677    2735.6112    37085         1089          659 
  915000     298.9654     294.5851    -28216.34    2765.0023    37090         1094          636 
  916000    284.48739    290.26321   -28256.579    2712.9124    37115         1119          659 
  917000    301.24156    287.91924   -28306.607    2756.3001    37116         1120          652 
  918000    297.38014    288.18115   -28233.791    2732.5237    37103         1107          632 
  919000    299.91026    296.26996   -28172.027    2776.6917    37087         1091          620 
  920000    289.01143     295.7002    -28155.99    2729.8947    37079         1083          621 
  921000    303.94451    289.03255   -28262.719    2773.0843    37118         1122          659 
  922000    286.95725    287.76035   -28231.364    2685.1004    37090         1094          646 
  923000    287.62175    292.34976   -28198.173    2730.3259    37107         1111          619 
  924000    303.93311    302.50171   -28227.953    2841.0542    37102         1106          621 
  925000    292.74081    286.35245   -28211.871    2730.0889    37130         1134          668 
  926000    306.86876    302.77923   -28225.144    2881.0821    37133         1137          675 
  927000    292.02168    296.71859   -28227.824    2756.1492    37090         1094          682 
  928000    287.50924    296.56409   -28148.933    2732.4042    37081         1085          669 
  929000    293.87983    299.92074    -28184.46    2763.3392    37070         1074          645 
  930000    290.71448    287.51072   -28207.757    2683.9673    37076         1080          612 
  931000    295.25867    284.57737   -28213.365    2662.3622    37051         1055          621 
  932000    280.96652     295.6096   -28205.841     2679.207    37049         1053          635 
  933000    299.78258     295.1176   -28242.699    2723.8133    37033         1037          600 
  934000     296.2962    296.29527   -28299.353    2739.5394    37059         1063          624 
  935000    282.71667    285.21405   -28232.116    2657.2623    37091         1095          635 
  936000    303.41483    296.81782   -28187.465    2788.4414    37084         1088          647 
  937000    292.87199    308.88439    -28125.16    2842.1925    37100         1104          655 
  938000    284.80528    293.66669   -28121.991    2713.4302    37090         1094          622 
  939000    286.68892    295.33251   -28243.167    2725.5127    37083         1087          626 
  940000    302.73833    295.81648    -28239.61    2799.2457    37106         1110          642 
  941000    299.45638    287.71759   -28265.864    2756.8194    37125         1129          658 
  942000    285.29263    289.90325   -28252.688    2698.0186    37097         1101          640 
  943000     302.5711    286.52989   -28194.582    2748.9122    37111         1115          652 
  944000    288.08346    292.31279   -28324.336    2721.2065    37094         1098          648 
  945000    283.16828    290.09399   -28161.422    2671.1505    37072         1076          629 
  946000    294.58883    287.62405   -28148.637     2717.713    37100         1104          657 
  947000    305.08144     288.6415   -28231.164    2725.9967    37063         1067          617 
  948000    286.96384    293.77265   -28220.117     2712.412    37079         1083          636 
  949000    283.07207    298.11099   -28181.829    2736.0785    37089         1093          650 
  950000    288.69421    294.60959   -28201.983    2721.7373    37076         1080          636 
  951000     305.2055    288.26357   -28241.207     2745.504    37087         1091          624 
  952000    297.37011    291.63705   -28227.524    2740.8008    37087         1091          673 
  953000    289.10584    300.37217   -28318.312    2713.6959    37026         1030          637 
  954000    279.17382    300.13897   -28199.157    2678.6538    37023         1027          598 
  955000    284.69579    289.35976     -28180.8    2621.7792    37013         1017          586 
  956000    303.99975    305.56107   -28231.996    2768.0726    37001         1005          586 
  957000    295.97515    285.73311   -28199.092    2661.7116    37045         1049          644 
  958000    289.06013    292.43054   -28175.116    2693.2815    37058         1062          639 
  959000    288.41049    287.62942   -28224.771    2653.8822    37049         1053          634 
  960000    288.04938    290.96443   -28197.197    2688.6777    37066         1070          634 
  961000    290.46059    297.07688   -28189.793    2736.5087    37070         1074          640 
  962000    284.32198    293.34882   -28209.195    2684.0157    37059         1063          638 
  963000    295.41648    290.45345   -28223.208    2700.1328    37057         1061          638 
  964000    295.79448    293.49163   -28158.891    2729.0252    37068         1072          628 
  965000    310.40561      279.238   -28190.264    2678.8112    37057         1061          621 
  966000    274.93873    292.65358   -28301.802    2658.8228    37068         1072          612 
  967000    300.54982    288.89773    -28288.26    2751.3239    37106         1110          674 
  968000    278.90025    294.17278   -28205.596    2716.2263    37112         1116          666 
  969000    287.99364     295.1389   -28150.144    2751.1471    37110         1114          648 
  970000    284.02918    295.34559   -28264.758    2712.8708    37078         1082          631 
  971000    290.18849    298.96423   -28265.649    2799.8719    37131         1135          684 
  972000     295.3737    290.34238   -28192.647    2750.3113    37114         1118          632 
  973000    293.48662    285.01553   -28265.616    2702.6552    37105         1109          665 
  974000    295.67424     290.3325   -28242.482     2745.207    37109         1113          666 
  975000    285.21663    297.95413   -28248.322    2758.1487    37110         1114          677 
  976000    295.73169    291.32232   -28213.698    2750.3722    37105         1109          629 
  977000    287.18393    293.33875   -28268.572    2759.7443    37137         1141          666 
  978000    297.44712    307.39103   -28240.578    2865.8939    37121         1125          633 
  979000    286.18656    290.62508   -28228.217    2715.3216    37108         1112          633 
  980000    286.28985    296.50575   -28111.222    2770.1032    37128         1132          659 
  981000    291.69427    296.96955    -28190.16    2769.4035    37104         1108          615 
  982000    304.51477    285.03528   -28201.716    2737.2886    37102         1106          621 
  983000    285.81233    286.94634   -28232.833    2680.6968    37093         1097          647 
  984000    310.97581    293.88488   -28191.869    2806.0252    37096         1100          627 
  985000    296.37428    298.66367   -28273.636    2797.1376    37107         1111          644 
  986000    290.18305     291.1458   -28274.526    2733.1498    37109         1113          646 
  987000     299.6347    285.82701   -28258.799    2731.5111    37108         1112          659 
  988000    295.24366    297.58304   -28299.135    2763.0002    37080         1084          634 
  989000    301.42823    292.36484   -28278.441    2752.6151    37082         1086          629 
  990000    299.23472    293.68243   -28263.958    2754.0513    37082         1086          647 
  991000    280.37217    284.44251   -28099.126    2622.0006    37064         1068          630 
  992000    300.41948     287.9458   -28198.895    2686.5727    37042         1046          585 
  993000    306.38178    303.54488   -28217.236    2849.8675    37095         1099          645 
  994000    295.59987    290.33653   -28265.452    2687.7384    37044         1048          614 
  995000    283.60799    297.57087   -28134.277    2731.7989    37088         1092          643 
  996000    301.21228    295.42445   -28297.768     2813.642    37128         1132          692 
  997000    293.99966    295.36723   -28275.167    2784.9963    37124         1128          671 
  998000    295.69893    293.75876   -28207.995    2773.1671    37114         1118          648 
  999000    284.23739    291.02685   -28224.714    2670.0509    37056         1060          621 
 1000000    290.36003    299.26437   -28208.968    2727.9581    37044         1048          623 
 1001000    292.65275    290.28767   -28243.732    2668.3184    37029         1033          610 
 1002000    292.39747    298.85295   -28161.648    2784.3257    37105         1109          656 
 1003000    305.46893    288.95696   -28175.195    2747.6258    37081         1085          603 
 1004000    296.78639    295.79469   -28279.865    2771.5793    37095         1099          658 
 1005000    282.12594     290.3699   -28238.323    2657.9071    37057         1061          626 
 1006000    292.04612    288.31062   -28267.081    2691.0441    37073         1077          630 
 1007000    274.47569    292.98762   -28249.105    2671.7696    37085         1089          625 
 1008000    287.37797    294.11837   -28189.501    2737.4644    37104         1108          652 
 1009000    298.80959    292.40553   -28258.529    2747.4162    37084         1088          642 
 1010000    298.88879    286.55115   -28153.295     2723.219    37094         1098          642 
 1011000    294.25968    291.14335   -28327.617    2757.8382    37121         1125          675 
 1012000    279.35168    294.83738   -28201.463    2738.7601    37133         1137          674 
 1013000    288.73169    291.57512    -28207.45    2738.8729    37118         1122          648 
 1014000    295.42951    287.75595   -28248.419    2764.4241    37149         1153          668 
 1015000    302.11244    290.62323   -28170.321    2790.5908    37131         1135          664 
 1016000    296.61757     293.0725   -28257.026    2769.1781    37112         1116          641 
 1017000    293.51508    290.73451   -28254.055    2736.9264    37104         1108          625 
 1018000    289.27493    289.21977   -28154.492    2736.5327    37131         1135          663 
 1019000    279.37214     304.0339   -28212.379     2787.444    37122         1126          665 
 1020000    293.11328    286.87633   -28215.374    2723.1939    37117         1121          687 
 1021000     296.7511    297.29623   -28166.203    2793.1653    37110         1114          665 
 1022000    301.70373    297.74911   -28317.521    2773.1074    37065         1069          624 
 1023000    294.65316    295.84701   -28213.595    2737.9745    37064         1068          629 
 1024000    304.16686    287.91876   -28276.999    2721.4254    37067         1071          616 
 1025000    285.02133      294.107   -28128.372    2753.0509    37132         1136          668 
 1026000     291.4515    294.49447    -28239.25    2771.7642    37126         1130          672 
 1027000    294.32312    298.36502   -28200.986     2770.985    37088         1092          677 
 1028000    294.16003    298.61487   -28162.073    2776.0871    37090         1094          644 
 1029000    286.53898    293.41682   -28212.913    2708.3817    37076         1080          624 
 1030000    298.35544    289.11005   -28306.522    2703.5736    37059         1063          634 
 1031000    301.17038    301.04932   -28164.923    2798.4059    37073         1077          658 
 1032000    288.74976    289.17541   -28225.789    2706.4158    37097         1101          683 
 1033000      294.221    292.93969   -28216.219     2735.403    37084         1088          662 
 1034000    279.86953    284.51028   -28199.106    2663.0586    37114         1118          680 
 1035000    296.23272    297.25255   -28215.847    2783.2276    37102         1106          654 
 1036000    305.00303    276.48976   -28244.527    2640.3583    37051         1055          603 
 1037000     280.2841     296.4846     -28273.9    2679.6169    37045         1049          626 
 1038000    294.73892    292.20845   -28268.485    2728.9339    37079         1083          646 
 1039000    298.22371    284.86842    -28254.24    2696.2593    37081         1085          654 
 1040000    282.26219    295.71953   -28326.276    2704.8281    37072         1076          640 
 1041000      293.066    290.77756   -28138.431    2706.9259    37072         1076          644 
 1042000    297.17451    292.81807   -28186.293    2717.9482    37054         1058          618 
 1043000     301.0345    285.38401   -28262.839    2726.8881    37100         1104          627 
 1044000    291.76941    291.38038   -28371.392     2732.236    37100         1104          655 
 1045000    284.92777    290.82748   -28203.523    2685.2868    37077         1081          649 
 1046000    289.15526    290.37333   -28290.382     2744.216    37131         1135          672 
 1047000    297.59223    289.65066   -28225.111    2758.7349    37121         1125          640 
 1048000    290.12474    288.62383   -28271.835     2751.104    37145         1149          685 
 1049000    280.38794    299.81047   -28276.111     2760.179    37118         1122          656 
 1050000    295.38573    297.42159    -28246.94    2780.7536    37100         1104          643 
 1051000    299.26111    292.13993    -28186.46    2741.9625    37079         1083          651 
 1052000    287.49742    291.90615   -28151.684     2692.673    37068         1072          640 
 1053000    288.93441     305.3283   -28155.415    2783.5668    37073         1077          648 
 1054000    299.31162    294.88852   -28209.943    2768.4543    37089         1093          667 
 1055000    294.87301    295.42648   -28228.937    2744.1044    37075         1079          649 
 1056000    283.72512     287.5039   -28203.717    2696.1639    37117         1121          662 
 1057000    303.05765    296.38035   -28193.511    2845.1148    37151         1155          679 
 1058000    290.80075    288.62161   -28152.854    2769.1488    37167         1171          701 
 1059000    300.12398    301.01657   -28238.547    2825.9695    37108         1112          665 
 1060000    295.76719     303.9381   -28220.943    2799.2969    37074         1078          617 
 1061000    285.98774      286.578   -28238.741    2677.8881    37092         1096          622 
 1062000    295.54212    295.46364   -28257.093    2781.0526    37111         1115          643 
 1063000    304.47055    299.24551   -28200.141    2819.9394    37098         1102          652 
 1064000    292.63057    293.62623   -28308.706    2758.4194    37112         1116          674 
 1065000    300.72271    283.48204   -28252.594    2726.5136    37116         1120          661 
 1066000    297.03008    292.84133   -28254.437    2749.8255    37090         1094          654 
 1067000    280.77471    290.37607    -28205.28    2685.3061    37096         1100          654 
 1068000    298.02901    286.64444   -28243.558    2707.4427    37081         1085          633 
 1069000    301.59029    286.87575   -28286.699    2730.9016    37094         1098          684 
 1070000    298.64856    295.18567    -28308.37    2760.2568    37081         1085          657 
 1071000    285.75987    296.33688   -28253.908    2716.9653    37070         1074          658 
 1072000    289.87933    294.41873   -28213.675    2704.2264    37055         1059          640 
 1073000    291.89216    293.11772   -28226.995    2720.6512    37075         1079          654 
 1074000    301.51299    301.54662   -28254.126    2817.3852    37090         1094          667 
 1075000    289.00693    285.27755   -28341.388    2650.3465    37060         1064          640 
 1076000    293.95269    297.95106    -28225.29    2775.1388    37097         1101          658 
 1077000    286.39104    287.08747   -28158.331    2700.7777    37115         1119          688 
 1078000     300.5441    302.98896   -28224.203    2827.4356    37096         1100          680 
 1079000    289.99597    291.48579   -28215.815    2708.8808    37079         1083          642 
 1080000    293.24366    288.89524   -28154.301    2688.1347    37062         1066          631 
 1081000    288.61081    294.28688   -28298.364    2685.7279    37039         1043          627 
 1082000    278.86608    283.82151    -28307.99    2617.8546    37070         1074          625 
 1083000    286.33577    297.69651   -28253.002    2742.5377    37088         1092          652 
 1084000    281.73541    295.92949   -28363.006    2728.0312    37101         1105          662 
 1085000    286.83077    286.66268   -28279.002    2670.9066    37082         1086          645 
 1086000    299.57787    294.42542    -28286.36    2799.3152    37126         1130          678 
 1087000    294.82979    295.01878   -28279.992    2769.9106    37107         1111          639 
 1088000    298.94004    295.56468   -28311.988    2795.0284    37113         1117          656 
 1089000    291.44145    296.56541   -28232.002    2762.9283    37101         1105          659 
 1090000    286.71854     287.6801   -28152.106    2698.7284    37106         1110          667 
 1091000    297.05736    293.10978   -28216.055    2770.9712    37112         1116          662 
 1092000    291.79447    296.21878   -28155.346    2776.3734    37119         1123          664 
 1093000     283.8123    303.19825   -28248.993    2792.1345    37116         1120          670 
 1094000    301.80052    297.50694   -28214.396    2775.0567    37069         1073          629 
 1095000    293.20905    296.38732   -28244.556    2755.8052    37085         1089          654 
 1096000    281.91567    289.66847   -28243.106    2683.1613    37091         1095          639 
 1097000    291.49006    293.03071   -28261.928    2704.6187    37059         1063          614 
 1098000    276.68465    307.47999   -28255.863    2774.3051    37093         1097          637 
 1099000    293.07874    291.03791   -28204.723    2673.7186    37031         1035          597 
 1100000    298.44415    287.87363   -28248.103    2706.8433    37071         1075          601 
Loop time of 117746 on 10 procs for 300000 steps with 37071 atoms

Performance: 0.220 ns/day, 109.024 hours/ns, 2.548 timesteps/s
95.4% CPU use with 10 MPI tasks x no OpenMP threads

MPI task timing breakdown:
Section |  min time  |  avg time  |  max time  |%varavg| %total
---------------------------------------------------------------
Pair    | 151.65     | 1601.7     | 7912.6     |6283.7 |  1.36
Bond    | 0.11986    | 0.15145    | 0.18508    |   5.6 |  0.00
Kspace  | 1322.8     | 7443.3     | 8874.6     |2833.6 |  6.32
Neigh   | 1629.9     | 1631.3     | 1632       |   1.7 |  1.39
Comm    | 96.466     | 239.5      | 379.49     | 556.8 |  0.20
Output  | 0.058523   | 0.060532   | 0.077008   |   2.2 |  0.00
Modify  | 1.0676e+05 | 1.0682e+05 | 1.0693e+05 |  20.2 | 90.72
Other   |            | 10.27      |            |       |  0.01

Nlocal:    3707.1 ave 5014 max 3361 min
Histogram: 6 2 0 0 0 0 1 0 0 1
Nghost:    9729.7 ave 10710 max 8896 min
Histogram: 4 0 1 0 0 0 1 1 1 2
Neighs:    188171 ave 921125 max 15445 min
Histogram: 7 1 0 0 0 0 1 0 0 1

Total # of neighbors = 1881708
Ave neighs/atom = 50.7596
Ave special neighs/atom = 0.165089
Neighbor list builds = 615751
Dangerous builds = 0
write_data        C199_H2_1020watergcmc1.6ns.data
PPPM initialization ...
  using 12-bit tables for long-range coulomb (../kspace.cpp:321)
  G vector (1/distance) = 0.168895
  grid = 40 9 30
  stencil order = 5
  estimated absolute RMS force accuracy = 0.0285932
  estimated relative force accuracy = 8.61077e-05
  using double precision FFTs
  3d grid and FFT values/proc = 3640 1080
WARNING: Neighbor exclusions used with KSpace solver may give inconsistent Coulombic energies (../neighbor.cpp:472)
run               400000
PPPM initialization ...
  using 12-bit tables for long-range coulomb (../kspace.cpp:321)
  G vector (1/distance) = 0.168895
  grid = 40 9 30
  stencil order = 5
  estimated absolute RMS force accuracy = 0.0285932
  estimated relative force accuracy = 8.61077e-05
  using double precision FFTs
  3d grid and FFT values/proc = 3640 1080
WARNING: Neighbor exclusions used with KSpace solver may give inconsistent Coulombic energies (../neighbor.cpp:472)
Per MPI rank memory allocation (min/avg/max) = 10.78 | 11.59 | 14.71 Mbytes
Step c_mtem c_mwtem PotEng KinEng Atoms v_nH2 v_nbH2 
 1100000    298.44415    287.87363   -28248.103    2706.8433    37071         1075          604 
 1101000    303.09075    293.71283   -28339.323    2757.1366    37070         1074          598 
 1102000    300.53826    289.07038   -28217.077    2737.1232    37088         1092          635 
 1103000    280.32999    295.02983   -28264.132    2719.7205    37104         1108          674 
 1104000     292.4328    297.05584   -28320.073    2747.5858    37077         1081          673 
 1105000    287.06061    294.14491    -28087.14    2692.3031    37053         1057          632 
 1106000    289.97328    293.09314   -28233.404    2720.2722    37081         1085          631 
 1107000    296.61702    296.67708   -28163.435    2763.9811    37081         1085          657 
 1108000    291.75911    294.25145   -28308.155    2736.0061    37084         1088          633 
 1109000    286.50546    287.65313   -28159.508    2667.3495    37072         1076          630 
 1110000     290.1131    295.86085   -28201.655    2753.6526    37101         1105          640 
 1111000    287.63071    292.16311   -28216.536      2696.19    37068         1072          631 
 1112000    300.18535    295.11968   -28205.345    2782.7839    37101         1105          660 
 1113000    293.60788    293.34026   -28222.122    2725.7726    37072         1076          638 
 1114000     297.1045    294.30521   -28220.135    2755.2894    37087         1091          613 
 1115000    296.92418    290.90256    -28249.63    2755.9647    37112         1116          653 
 1116000    284.46221    303.56731   -28325.939    2791.1867    37112         1116          663 
 1117000    298.28553    299.19572   -28194.379    2817.9604    37121         1125          644 
 1118000    294.63248    295.05386    -28216.82    2778.2378    37117         1121          648 
 1119000    294.72401    294.36889   -28252.942    2750.4223    37090         1094          630 
 1120000    293.98759    295.42534   -28135.507    2725.1769    37057         1061          611 
 1121000    303.03205    303.58851   -28103.547     2825.864    37081         1085          636 
 1122000    284.24583    296.40142   -28247.488    2720.4319    37079         1083          647 
 1123000     292.8136    305.24076   -28311.647    2762.1434    37035         1039          592 
 1124000    282.63975    286.18892   -28201.522    2629.7039    37053         1057          609 
 1125000    288.40901    289.41984   -28156.556    2677.8636    37062         1066          663 
 1126000    303.58117    290.41613   -28174.034    2736.4605    37068         1072          638 
 1127000    286.21667    292.01769   -28193.165     2692.413    37068         1072          628 
 1128000    287.20459    288.62555   -28250.487    2675.2983    37069         1073          642 
 1129000    297.46054    286.77023   -28301.125    2729.3522    37105         1109          668 
 1130000    298.21524    298.67538   -28300.137    2755.0133    37051         1055          659 
 1131000    291.37727    295.55681   -28256.407     2717.525    37056         1060          647 
 1132000    294.62684    300.31479   -28205.942    2745.7319    37044         1048          638 
 1133000     299.4711     290.1306   -28244.718    2687.3673    37031         1035          623 
 1134000    292.62356    297.72757   -28192.199    2721.0073    37040         1044          631 
 1135000    283.31377    297.38216   -28222.917    2695.4944    37048         1052          642 
 1136000    296.47026     289.2289   -28255.358    2672.7458    37032         1036          575 
 1137000    301.89425    288.82549   -28281.874    2706.3557    37052         1056          612 
 1138000    293.19146    289.13647   -28177.124    2691.0135    37063         1067          645 
 1139000    294.94719    293.33377   -28204.115    2700.2502    37039         1043          641 
 1140000    295.78264    288.45196   -28228.335    2696.3062    37065         1069          638 
 1141000    293.55256    300.30013   -28152.725    2768.8033    37071         1075          649 
 1142000    284.14076    291.95654   -28162.432    2704.2761    37093         1097          647 
 1143000    281.08908    291.19137   -28205.356    2713.1984    37120         1124          656 
 1144000      304.755    292.73782   -28264.971    2807.0504    37127         1131          653 
 1145000    290.38565    292.57048   -28243.298    2745.4794    37112         1116          645 
 1146000     296.5225    295.31288   -28259.285    2776.9586    37107         1111          645 
 1147000    287.86544    288.79273   -28239.627    2688.6448    37084         1088          620 
 1148000    289.05023    296.64888   -28251.807    2779.8153    37128         1132          674 
 1149000    297.29497    294.50682   -28245.687    2780.0217    37113         1117          633 
 1150000    298.15053    292.25642   -28298.606    2774.3375    37119         1123          645 
 1151000    287.34393     298.7231    -28197.57    2758.1108    37094         1098          643 
 1152000    290.72446    286.12383   -28225.023    2689.0333    37092         1096          673 
 1153000    304.79137    296.22578   -28242.373    2785.9826    37080         1084          651 
 1154000    297.06631    286.66827   -28174.806    2708.5938    37087         1091          646 
 1155000    311.75715     285.7374   -28164.124     2739.396    37075         1079          627 
 1156000    295.70529    290.66695   -28175.666    2683.8623    37037         1041          607 
 1157000    288.15775     298.8458   -28220.543    2748.2479    37081         1085          650 
 1158000    283.53565    283.98419   -28229.289    2669.9918    37113         1117          669 
 1159000    292.41451    292.59258   -28225.612    2730.8861    37087         1091          636 
 1160000    290.58712     296.1349   -28238.763    2744.1686    37085         1089          636 
 1161000    290.11441    290.30659   -28228.983    2705.3919    37083         1087          619 
 1162000    319.19335    296.67149    -28140.93    2848.4662    37094         1098          643 
 1163000    289.95179    290.70897   -28185.215    2724.6773    37100         1104          655 
 1164000    290.09109    286.36773   -28264.349    2688.5703    37092         1096          655 
 1165000    297.56069    291.08112    -28114.88    2743.8247    37094         1098          640 
 1166000    296.48474    296.00632   -28166.314    2744.9671    37066         1070          638 
 1167000    294.91396    284.92223   -28246.769    2678.9161    37073         1077          646 
 1168000    293.27085    292.93929   -28236.619    2740.1433    37093         1097          652 
 1169000    294.00802    298.35244   -28218.318    2777.9501    37097         1101          653 
 1170000    275.38284    289.49989   -28160.062    2677.9756    37114         1118          680 
 1171000    293.35471     297.3582   -28211.102    2762.8153    37089         1093          645 
 1172000    275.19563    296.31705   -28287.755    2698.2175    37088         1092          641 
 1173000     303.8114    296.61623   -28227.852    2785.4916    37081         1085          644 
 1174000     291.4535    290.74424   -28182.124    2700.1907    37068         1072          643 
 1175000    289.37329    289.07309   -28137.606    2702.3687    37092         1096          656 
 1176000    310.06522     299.4237   -28115.818    2823.9408    37082         1086          660 
 1177000    286.05368    294.14841   -28200.074     2708.434    37073         1077          662 
 1178000    284.96344    293.18593   -28293.477    2713.0442    37089         1093          666 
 1179000    304.96751    286.23016   -28124.504    2726.9956    37082         1086          647 
 1180000    288.25106    295.75619   -28199.333    2733.0463    37084         1088          641 
 1181000    295.06193    285.26947    -28314.36    2695.9105    37089         1093          662 
 1182000     283.3777    286.73442    -28180.24    2637.0715    37055         1059          665 
 1183000    295.31398    299.77197   -28160.633     2763.525    37066         1070          615 
 1184000    287.03217    289.03622   -28180.527    2660.7169    37052         1056          618 
 1185000    284.16891    288.40083   -28166.682    2683.7843    37094         1098          656 
 1186000    296.54002    294.41869   -28163.454    2777.0442    37114         1118          671 
 1187000    289.61679    299.60569   -28319.948    2785.1434    37111         1115          652 
 1188000    290.70856    293.32819   -28232.268    2768.9167    37133         1137          683 
 1189000    297.12925    284.20851   -28210.471    2725.3364    37122         1126          664 
 1190000    296.07202    287.46064   -28142.228    2743.2956    37123         1127          668 
 1191000    286.66902    293.53663   -28163.289    2718.2314    37088         1092          666 
 1192000    287.13574    300.78293    -28137.07    2764.5615    37090         1094          651 
 1193000    284.30555    294.52799   -28207.523    2724.8898    37099         1103          658 
 1194000    296.47173    296.36582   -28261.317    2744.1745    37062         1066          646 
 1195000    305.23681    291.59184   -28212.035    2722.8206    37041         1045          614 
 1196000    301.81591     302.0283   -28196.782    2778.7252    37044         1048          629 
 1197000    290.18143    294.10791   -28246.797    2665.6739    37010         1014          599 
 1198000    305.14774     294.3327   -28257.852    2728.1943    37028         1032          606 
 1199000    290.03369    294.70245   -28231.112       2684.3    37028         1032          589 
 1200000    293.46295    293.27401   -28122.306    2707.3473    37053         1057          631 
 1201000    283.92964    290.54745   -28197.729    2676.0814    37070         1074          633 
 1202000    293.85636    294.48042   -28188.755    2743.7063    37085         1089          638 
 1203000    298.52637    295.81974    -28106.47    2783.9967    37103         1107          631 
 1204000    291.58099    284.93782   -28272.614    2697.0492    37106         1110          625 
 1205000    298.96357    299.42174   -28269.077    2821.2596    37119         1123          661 
 1206000    298.60385    291.85294   -28315.629    2753.0303    37094         1098          650 
 1207000    301.11741    288.36272   -28237.022    2741.1785    37098         1102          644 
 1208000     287.5677    301.29833   -28240.032    2760.2892    37080         1084          636 
 1209000    293.99612    286.63433   -28218.083    2677.4193    37062         1066          628 
 1210000    300.65578    295.50699   -28155.869    2733.5563    37041         1045          612 
 1211000    291.73039     290.7467   -28246.249    2702.7426    37071         1075          625 
 1212000    297.46679    291.24421   -28217.787    2749.5428    37099         1103          658 
 1213000    294.64605     300.8271   -28167.394    2776.7671    37074         1078          645 
 1214000    279.71099    289.41055   -28254.853    2655.5993    37069         1073          617 
 1215000    288.46951    288.41884   -28221.448    2717.1145    37117         1121          678 
 1216000    292.76528    301.13467   -28236.818    2787.5692    37093         1097          642 
 1217000    301.77937    292.05966   -28283.554     2759.258    37089         1093          656 
 1218000    288.33921    291.13446   -28190.626    2710.6209    37091         1095          660 
 1219000    292.44933    287.76127   -28227.494    2680.8144    37065         1069          612 
 1220000    309.38975    289.42123    -28149.31    2780.3441    37101         1105          650 
 1221000    289.23365    300.04909   -28296.365     2771.706    37095         1099          671 
 1222000    291.61177     289.2022    -28259.11    2720.8036    37103         1107          670 
 1223000    311.54259    291.33638   -28255.562     2789.609    37093         1097          659 
 1224000    301.16963    284.20545   -28255.151    2709.0588    37088         1092          655 
 1225000    290.97629    302.17259    -28272.32    2804.2182    37110         1114          684 
 1226000    285.77833    293.72814   -28174.143    2693.2368    37062         1066          647 
 1227000    282.75858    299.27536   -28216.645    2682.0808    37019         1023          581 
 1228000     301.4159     284.5145   -28250.105    2707.0536    37081         1085          647 
 1229000    288.68902    289.00537   -28223.125     2708.737    37103         1107          634 
 1230000    291.47262    281.26217   -28259.869    2675.9328    37109         1113          673 
 1231000     282.7854    283.12145   -28231.153    2624.0326    37066         1070          629 
 1232000    289.64294    294.05895   -28233.089    2719.0887    37075         1079          632 
 1233000    287.07906    290.34005   -28286.232    2725.4575    37118         1122          666 
 1234000    285.97212    294.58417   -28252.258    2756.4465    37129         1133          659 
 1235000    295.90851    292.97715   -28289.876     2754.589    37099         1103          654 
 1236000    300.70656    293.50135   -28144.996    2794.7734    37124         1128          677 
 1237000    301.60853    280.70029   -28277.681    2696.3114    37097         1101          633 
 1238000    287.93078    295.28955   -28230.537    2743.8317    37097         1101          643 
 1239000    286.42603    294.31776   -28169.407    2724.9466    37089         1093          647 
 1240000    307.31926    292.96233   -28185.785    2788.9839    37093         1097          675 
 1241000    298.23538    292.05705   -28182.433     2728.816    37065         1069          620 
 1242000    306.66742    296.65764   -28174.032    2774.8102    37059         1063          605 
 1243000    287.21002    292.44007   -28223.983    2685.5922    37057         1061          607 
 1244000    285.81255    291.06437   -28172.734    2692.0689    37079         1083          624 
 1245000    300.69548    296.96047   -28181.979    2769.9755    37071         1075          629 
 1246000    297.73911    300.71105   -28049.658    2777.9761    37066         1070          621 
 1247000    288.88804    298.35083   -28108.152    2738.9869    37069         1073          630 
 1248000    306.05143     300.2231   -28179.981    2827.5789    37095         1099          654 
 1249000    276.35466    289.74837   -28096.518    2664.8153    37091         1095          657 
 1250000    295.30254    289.31117   -28211.943    2719.1353    37086         1090          654 
 1251000    283.80602    293.74225   -28158.905    2689.2408    37063         1067          610 
 1252000    288.16657    290.84203   -28156.682    2706.3368    37086         1090          637 
 1253000    294.64595        295.1   -28296.424    2780.0286    37119         1123          653 
 1254000    300.87027    293.25587   -28267.375    2828.6903    37158         1162          690 
 1255000    288.66987    300.41126   -28236.655    2793.2889    37119         1123          670 
 1256000    290.60449    302.68971   -28188.027     2828.807    37137         1141          686 
 1257000     307.6637    291.88392   -28131.023    2789.7238    37104         1108          662 
 1258000    284.84513    291.80151   -28137.284    2684.7714    37067         1071          618 
 1259000    311.55092    286.07017   -28263.634    2751.2403    37085         1089          619 
 1260000    290.09405    291.80572   -28277.872    2746.8584    37120         1124          687 
 1261000    285.08419    296.72159   -28226.841    2742.5879    37101         1105          640 
 1262000    303.72087    292.63526   -28209.691    2797.6353    37121         1125          659 
 1263000     303.6414    295.98018   -28231.018     2789.205    37090         1094          635 
 1264000    305.46272    288.13556   -28127.259    2749.7157    37093         1097          656 
 1265000    294.35412     300.5186   -28232.293    2796.1361    37099         1103          637 
 1266000    300.57955    296.21394   -28239.669    2776.2226    37084         1088          638 
 1267000    289.80765    290.79078   -28266.399     2731.037    37111         1115          652 
 1268000    289.61354    303.99732   -28201.945    2769.5965    37064         1068          638 
 1269000    289.27908    294.99872   -28221.223    2765.1369    37122         1126          677 
 1270000    292.98621    289.98222   -28223.899    2708.5371    37079         1083          625 
 1271000    297.68439    287.53114   -28163.863    2697.1351    37063         1067          629 
 1272000    291.97583    294.24798   -28294.407    2726.5001    37073         1077          638 
 1273000    293.86275    296.47829   -28282.648    2765.7255    37096         1100          650 
 1274000    301.56835    300.23314   -28316.369    2818.5247    37101         1105          672 
 1275000    277.13252    286.29239   -28343.498    2635.3906    37079         1083          624 
 1276000    290.92475    298.57757   -28197.839     2738.744    37062         1066          613 
 1277000    298.47599    298.72854   -28270.785    2774.3208    37074         1078          643 
 1278000    295.95197     292.0907   -28189.532     2758.973    37110         1114          669 
 1279000    289.05085    288.21819   -28331.144    2700.8106    37097         1101          666 
 1280000    296.03938    294.00586    -28273.91    2752.2788    37090         1094          664 
 1281000    299.54941    299.93448   -28238.946    2813.5548    37104         1108          656 
 1282000    294.82328     293.6718   -28246.591    2765.2837    37112         1116          635 
 1283000    300.03546    292.73469    -28286.37    2781.1396    37114         1118          664 
 1284000      294.408     285.4474   -28236.426    2698.5163    37090         1094          649 
 1285000    282.15845    303.42272   -28116.497    2763.1112    37088         1092          633 
 1286000    290.51108    297.80141   -28261.853    2769.8121    37105         1109          661 
 1287000    287.61118    304.60771   -28222.291    2799.4863    37102         1106          635 
 1288000    290.75443    289.76885   -28228.094    2699.3319    37077         1081          638 
 1289000      288.522    292.03916   -28241.764    2726.0779    37102         1106          668 
 1290000    290.02515    289.43588   -28297.013    2704.0785    37088         1092          648 
 1291000    304.86468    287.38354   -28302.363    2711.1865    37058         1062          607 
 1292000    302.19356    298.19814   -28302.527    2777.2488    37066         1070          633 
 1293000    279.83484    290.10949   -28207.619    2647.1294    37054         1058          618 
 1294000    293.07525    296.71204   -28264.898    2719.1355    37043         1047          615 
 1295000    305.22399     295.0843   -28209.973    2778.0092    37078         1082          678 
 1296000    293.00728    292.90712   -28102.202    2724.8857    37076         1080          642 
 1297000    289.39912     296.1674   -28217.062    2736.2363    37080         1084          639 
 1298000    275.98404    296.19853    -28186.95    2680.3803    37066         1070          652 
 1299000    299.46982    301.11735   -28221.136    2799.2562    37080         1084          665 
 1300000    291.15669     290.5377   -28294.751     2680.014    37049         1053          639 
 1301000     289.8032    291.16386   -28180.267    2705.5414    37078         1082          651 
 1302000    282.51997    298.03935   -28144.387     2739.519    37097         1101          668 
 1303000    298.97864    286.01275   -28225.155    2737.4271    37117         1121          686 
 1304000    309.89596    281.57535   -28157.081    2763.5901    37135         1139          667 
 1305000    289.14984    293.15677   -28292.945    2750.0712    37119         1123          647 
 1306000    288.69059    291.44997   -28232.967    2745.8072    37128         1132          660 
 1307000    299.35019    301.30014   -28203.537     2811.032    37094         1098          640 
 1308000    293.50652    296.01966   -28180.989    2761.2209    37094         1098          648 
 1309000    305.13025    286.70359   -28210.339    2765.1791    37120         1124          678 
 1310000    283.85601    289.19294   -28276.751    2719.1508    37133         1137          661 
 1311000    303.35545    284.69075    -28126.81     2752.618    37125         1129          641 
 1312000    302.03216    293.12624   -28251.088    2801.6576    37128         1132          672 
 1313000     286.8798    293.89098   -28254.897     2730.577    37096         1100          662 
 1314000    296.40431    289.35018   -28129.949    2748.3249    37115         1119          654 
 1315000    306.63026    293.79306   -28190.523    2810.4771    37117         1121          681 
 1316000    290.46506    293.82484   -28177.845    2747.0554    37106         1110          661 
 1317000    285.54914     307.8955    -28150.02    2818.3819    37107         1111          661 
 1318000    294.43814    291.05933   -28199.159    2766.0142    37131         1135          669 
 1319000    297.49131    292.60473   -28305.244    2762.0503    37104         1108          668 
 1320000    296.09905    303.51111   -28296.885    2782.7532    37058         1062          623 
 1321000    297.51889    292.31669   -28243.861    2735.4877    37075         1079          649 
 1322000    294.36572    288.30974   -28217.363    2698.2037    37070         1074          642 
 1323000    298.90541    298.10751   -28275.079    2764.9267    37064         1068          619 
 1324000    279.47188    293.07389   -28243.617    2673.7394    37063         1067          632 
 1325000    288.31966    301.89017   -28057.677    2748.8436    37058         1062          623 
 1326000    289.63086    289.77445    -28188.22    2698.6001    37082         1086          654 
 1327000    295.15403    296.15879   -28298.194    2745.8261    37068         1072          632 
 1328000    284.94923    300.24445   -28168.064    2749.4286    37082         1086          632 
 1329000    291.05134    295.34024    -28180.15    2705.4864    37046         1050          611 
 1330000    304.49438    288.86807   -28222.075    2725.8494    37062         1066          625 
 1331000    287.74507    289.50236   -28149.701    2673.2367    37059         1063          622 
 1332000    297.86921     302.0237   -28255.573    2767.2252    37045         1049          614 
 1333000    296.26794    280.60745   -28194.937    2648.5248    37061         1065          615 
 1334000    273.34117    293.79005   -28169.276    2683.8553    37097         1101          663 
 1335000    293.46731    295.39862   -28258.342    2767.3653    37104         1108          682 
 1336000    288.12877    283.84694   -28160.508     2659.752    37084         1088          664 
 1337000    293.45997    298.34507    -28233.63    2776.2729    37096         1100          640 
 1338000    297.51319    286.47775   -28196.989     2735.034    37114         1118          673 
 1339000    274.01967    287.15944   -28149.567     2631.934    37080         1084          647 
 1340000    296.27568    299.00199   -28190.755    2757.2132    37061         1065          629 
 1341000    302.04128     302.3734   -28271.544    2816.9291    37084         1088          648 
 1342000    297.98352     292.2247   -28280.151    2715.0965    37051         1055          620 
 1343000    313.78714    288.81809   -28249.736    2767.9029    37076         1080          640 
 1344000    290.40008    293.25836   -28183.351    2700.7254    37055         1059          642 
 1345000    291.01571    295.57966   -28226.391     2713.818    37053         1057          619 
 1346000    301.68577    286.69046   -28190.348    2709.4195    37071         1075          638 
 1347000    303.83791    291.19351   -28167.068    2721.5007    37047         1051          630 
 1348000     291.6481    303.08906   -28156.445     2768.615    37059         1063          645 
 1349000    283.86592    289.27709   -28160.128    2667.7131    37070         1074          642 
 1350000    298.50377    292.08815   -28215.353    2745.3777    37087         1091          619 
 1351000    290.24524    281.13798   -28287.154    2665.3156    37100         1104          640 
 1352000    310.69626    286.45395   -28317.804     2767.156    37104         1108          658 
 1353000    289.23814    290.39126   -28209.764    2705.2624    37087         1091          647 
 1354000    290.69068    289.55406   -28208.056    2733.4399    37119         1123          654 
 1355000    290.32589    291.80833    -28184.06    2730.2823    37101         1105          649 
 1356000    281.69139    293.90064    -28257.46    2725.2582    37114         1118          660 
 1357000    300.95398    288.89023   -28221.602    2748.4704    37100         1104          632 
 1358000    297.99313    288.57576   -28116.319    2744.2899    37111         1115          662 
 1359000    280.68351    294.60097   -28242.617    2685.4342    37063         1067          626 
 1360000    296.78615      298.913   -28167.203     2770.481    37073         1077          638 
 1361000    303.76171    287.91575   -28213.743    2708.4219    37053         1057          610 
 1362000    290.36933    293.95828   -28201.944     2700.299    37051         1055          638 
 1363000    301.07763    293.72406   -28119.902    2738.8956    37056         1060          650 
 1364000    313.04309    289.03264   -28226.598    2720.5928    37029         1033          615 
 1365000    291.59236    296.64889   -28194.417    2742.5588    37073         1077          635 
 1366000    291.65151    296.30136   -28148.962    2710.2107    37041         1045          602 
 1367000    301.26127    300.56808   -28229.802    2786.3368    37065         1069          660 
 1368000    290.72064     293.9536   -28164.709    2718.7134    37071         1075          617 
 1369000    283.48327    289.25909   -28210.662    2667.3986    37072         1076          635 
 1370000    287.89422    288.21898   -28163.439    2656.6031    37050         1054          610 
 1371000    292.42093    300.93322   -28196.192    2786.2409    37094         1098          643 
 1372000     284.3956    299.45523   -28311.281    2780.3834    37127         1131          666 
 1373000    299.44111    289.56436   -28317.768    2763.8552    37121         1125          668 
 1374000    296.02927     290.9751   -28204.928    2732.8288    37089         1093          630 
 1375000    298.66301    302.49986   -28245.034    2813.0825    37091         1095          637 
 1376000    285.24303    288.40313   -28252.649     2721.488    37134         1138          664 
 1377000    293.80082    288.81095   -28236.665    2733.4667    37109         1113          659 
 1378000    297.75886    296.08776   -28245.781    2780.3997    37101         1105          643 
 1379000    287.97251    304.47555   -28255.508    2813.8299    37116         1120          673 
 1380000    289.49814    295.57322   -28206.036    2755.5186    37106         1110          647 
 1381000    292.41987    290.97997   -28340.496    2747.8742    37118         1122          664 
 1382000    294.38709    302.51855   -28278.369    2812.3999    37105         1109          659 
 1383000    301.85211    294.58375   -28226.019    2769.5639    37084         1088          632 
 1384000    305.25248    291.30553   -28271.039    2753.5642    37074         1078          617 
 1385000    296.07863    296.62059   -28301.553     2734.966    37051         1055          623 
 1386000    299.82471    294.21706   -28284.483    2747.8834    37070         1074          663 
 1387000    284.94175    295.34205   -28265.825    2695.6975    37056         1060          633 
 1388000    297.27591    294.44306   -28178.237    2735.2872    37063         1067          624 
 1389000    292.64163    302.09994   -28178.332    2785.0048    37083         1087          624 
 1390000    288.02024    299.51741   -28142.854     2771.519    37103         1107          696 
 1391000    281.38439    301.58459    -28256.98    2748.1325    37085         1089          648 
 1392000    296.29364    297.12791   -28121.568    2748.5488    37063         1067          638 
 1393000    287.01541    298.93175   -28345.234    2732.8948    37066         1070          630 
 1394000    278.18643    288.58316   -28195.108    2653.7775    37081         1085          653 
 1395000    293.37734    294.85458   -28143.805    2771.1316    37113         1117          678 
 1396000    287.96803     288.9924   -28294.945    2717.5741    37114         1118          666 
 1397000    301.61663    295.04563   -28289.612    2789.1014    37102         1106          676 
 1398000    300.18777    292.51085   -28325.131    2793.7021    37131         1135          699 
 1399000     296.9333    291.50538   -28251.242    2791.3296    37146         1150          703 
 1400000    297.84592    294.94584   -28203.098     2827.797    37158         1162          703 
 1401000    300.53836    303.49567   -28234.875     2876.183    37142         1146          704 
 1402000    291.83112    288.74141   -28251.796    2726.5181    37109         1113          670 
 1403000    294.10593    302.40823   -28146.761    2816.4863    37109         1113          658 
 1404000    289.50925    287.94676   -28183.462    2724.4178    37125         1129          656 
 1405000    284.59477    292.51856   -28273.027    2730.1695    37117         1121          657 
 1406000    306.73233    305.57879   -28232.043    2892.7216    37127         1131          651 
 1407000    284.17487    298.62618   -28240.962    2775.6809    37129         1133          677 
 1408000    296.92088    287.55658   -28269.197    2758.1206    37136         1140          687 
 1409000    293.31261    290.14727   -28242.994    2773.3698    37151         1155          679 
 1410000    303.80252    293.29354   -28178.577    2881.0064    37207         1211          721 
 1411000    284.88017    290.49332   -28263.606    2748.4864    37154         1158          715 
 1412000    287.45309    292.50742   -28291.642    2767.8537    37151         1155          677 
 1413000    307.95024    294.55425   -28180.055    2844.9046    37144         1148          644 
 1414000    298.04945    289.55568   -28260.057    2803.6522    37169         1173          682 
 1415000    282.59659    296.96261   -28197.551      2794.59    37171         1175          674 
 1416000    289.12225    295.38998   -28335.042    2778.9371    37136         1140          677 
 1417000    298.89725    291.04387    -28293.52    2811.1419    37164         1168          685 
 1418000    301.39289    290.21585   -28314.382     2795.846    37144         1148          690 
 1419000    298.05614    293.48784   -28196.661     2764.887    37100         1104          668 
 1420000    289.08333    297.86221   -28214.845    2765.3851    37101         1105          662 
 1421000    292.69685    288.63457   -28220.547    2708.0559    37089         1093          633 
 1422000    299.36066    294.42243     -28210.6    2773.8578    37098         1102          661 
 1423000    284.92496    299.86076   -28119.499    2740.6726    37077         1081          634 
 1424000    289.89054    293.95868   -28148.064    2715.7781    37071         1075          639 
 1425000    296.54765    289.92397   -28234.372    2740.9145    37103         1107          657 
 1426000    301.65208    298.93761   -28206.562    2834.2459    37126         1130          694 
 1427000    288.16699    286.77501   -28235.218    2685.4874    37093         1097          646 
 1428000    282.31715    286.15057   -28215.057    2667.2547    37097         1101          644 
 1429000    306.35593    294.47289   -28146.863    2795.2639    37097         1101          625 
 1430000    293.58353    293.44824   -28279.446     2761.797    37111         1115          651 
 1431000    282.14874    288.03886   -28279.737    2709.3704    37135         1139          651 
 1432000    292.42647     297.4056   -28229.265    2813.0143    37147         1151          673 
 1433000    308.69711    290.33058   -28297.274    2805.1402    37127         1131          663 
 1434000    301.87536    290.26457   -28218.122    2787.0676    37132         1136          672 
 1435000    295.68842    283.79747   -28159.296    2730.8174    37137         1141          661 
 1436000    281.68298    286.76145   -28264.929    2700.5545    37135         1139          678 
 1437000    295.68091    300.92444   -28254.831    2847.9061    37152         1156          691 
 1438000    289.48437    290.53747   -28268.544    2768.3708    37158         1162          700 
 1439000    288.19654    299.17121   -28286.293    2830.1472    37173         1177          720 
 1440000    297.71851    290.12579   -28259.928     2800.093    37161         1165          687 
 1441000    290.29592     289.3669   -28266.182    2735.2357    37122         1126          658 
 1442000    301.03454    296.40068   -28240.663    2785.4142    37092         1096          645 
 1443000    301.25804    295.24732   -28156.608    2784.2816    37097         1101          649 
 1444000    284.21175    297.81434   -28218.112    2751.2262    37104         1108          649 
 1445000    295.80192    294.94727   -28194.733    2759.3487    37091         1095          631 
 1446000    290.62932    293.08819   -28149.084    2769.3101    37136         1140          661 
 1447000    296.67796    284.55198   -28154.754    2739.2141    37137         1141          664 
 1448000    280.39008    291.00395   -28209.311    2715.1661    37126         1130          658 
 1449000    290.73728    289.76694   -28219.913    2748.9939    37135         1139          668 
 1450000    286.15435     288.1421   -28244.132    2700.4445    37109         1113          668 
 1451000    294.94375    292.36604   -28250.673    2735.3292    37086         1090          637 
 1452000    289.91892    288.61952   -28186.258    2690.3203    37079         1083          632 
 1453000    288.87143    291.29491   -28251.391     2732.264    37113         1117          634 
 1454000    287.66265    294.79421   -28212.585    2748.7849    37112         1116          669 
 1455000    287.65359    308.51497    -28186.06    2823.8968    37103         1107          659 
 1456000    270.94352     294.8269   -28284.666    2701.6995    37120         1124          663 
 1457000    290.90856    287.98559   -28225.127    2719.8033    37114         1118          658 
 1458000    284.19568    289.64796   -28284.493    2675.5047    37076         1080          640 
 1459000    283.01687    290.61394   -28289.838     2680.099    37078         1082          640 
 1460000    290.37502    301.06507   -28320.541    2774.3258    37086         1090          649 
 1461000     296.1216    292.55665    -28337.82    2729.0369    37073         1077          608 
 1462000    301.16989    294.47189   -28309.092     2776.824    37093         1097          662 
 1463000    279.14844    287.21654   -28274.322    2625.1345    37052         1056          598 
 1464000     305.7231    289.65106   -28273.427    2733.7914    37063         1067          622 
 1465000     295.3134     294.0334   -28209.533    2745.6404    37084         1088          656 
 1466000    290.62281    296.33508   -28188.276    2748.9122    37088         1092          627 
 1467000    290.08673    299.84752   -28199.732    2784.8733    37108         1112          681 
 1468000     302.4803    299.24171   -28269.962    2823.8654    37111         1115          667 
 1469000    282.99737    292.76284   -28287.994    2719.4268    37109         1113          687 
 1470000    303.70387    291.99983    -28251.75    2757.0106    37080         1084          644 
 1471000    295.55053    301.70497   -28208.751    2838.8561    37136         1140          684 
 1472000    286.81093    287.63832   -28275.045    2726.9521    37141         1145          679 
 1473000    304.63873    298.44239   -28174.911    2829.5848    37114         1118          671 
 1474000    295.59627    298.75533   -28213.859    2805.7311    37120         1124          666 
 1475000    290.85852    286.46293   -28273.859     2753.143    37162         1166          687 
 1476000    291.86277    293.87796   -28204.564    2777.4913    37136         1140          703 
 1477000    283.76601    287.83425   -28178.896    2686.0019    37102         1106          671 
 1478000    302.65949    296.23417   -28176.396    2800.3702    37104         1108          661 
 1479000    300.62467    301.22387   -28210.369    2831.0019    37111         1115          628 
 1480000    287.85051    291.60428   -28299.445     2722.358    37103         1107          629 
 1481000    290.24032    292.57373    -28119.43    2729.5327    37094         1098          654 
 1482000    289.81096     294.1463   -28203.303    2709.1506    37061         1065          646 
 1483000    294.43955    290.83172    -28151.36    2759.2013    37125         1129          729 
 1484000     295.6696    298.70253   -28233.452    2791.6703    37103         1107          664 
 1485000    280.40858    298.20994   -28134.651    2737.5893    37103         1107          669 
 1486000    295.07213    291.13893   -28251.548    2739.9786    37097         1101          651 
 1487000    294.55649    294.64289   -28191.246    2739.8605    37074         1078          663 
 1488000    298.79524    285.91657   -28110.478    2703.8883    37079         1083          641 
 1489000    299.20148    296.56119   -28324.243    2763.1591    37074         1078          635 
 1490000    291.28401    293.61728   -28190.321    2733.9296    37090         1094          630 
 1491000     291.5528    296.85199   -28286.075    2772.6908    37111         1115          676 
 1492000    289.95153    293.42659   -28216.377    2751.9286    37116         1120          662 
 1493000    290.16231    298.67154   -28282.053    2774.2937    37103         1107          654 
 1494000     285.7194    287.56033   -28278.119    2729.9083    37147         1151          690 
 1495000    296.81023     302.0922   -28250.872    2837.0098    37124         1128          665 
 1496000    309.26606    303.11443   -28231.896    2852.8426    37090         1094          649 
 1497000    278.39178    288.14044   -28243.885    2665.1607    37097         1101          646 
 1498000    290.08716    300.38016   -28195.206    2780.0269    37100         1104          663 
 1499000    297.59282    289.76545   -28259.859    2740.8971    37100         1104          659 
 1500000    293.33399    296.19137   -28172.087    2727.6288    37054         1058          620 
Loop time of 129190 on 10 procs for 400000 steps with 37054 atoms

Performance: 0.268 ns/day, 89.715 hours/ns, 3.096 timesteps/s
95.3% CPU use with 10 MPI tasks x no OpenMP threads

MPI task timing breakdown:
Section |  min time  |  avg time  |  max time  |%varavg| %total
---------------------------------------------------------------
Pair    | 168.99     | 1795.5     | 8955       |6684.3 |  1.39
Bond    | 0.11996    | 0.15096    | 0.20633    |   5.9 |  0.00
Kspace  | 1444.8     | 8401.8     | 10014      |3008.0 |  6.50
Neigh   | 1749.3     | 1750.8     | 1751.5     |   1.8 |  1.36
Comm    | 112.61     | 269.57     | 403.11     | 574.4 |  0.21
Output  | 0.064207   | 0.066137   | 0.081476   |   2.0 |  0.00
Modify  | 1.169e+05  | 1.1696e+05 | 1.1707e+05 |  19.4 | 90.53
Other   |            | 10.7       |            |       |  0.01

Nlocal:    3705.4 ave 4948 max 3342 min
Histogram: 6 2 0 0 0 0 1 0 0 1
Nghost:    9751.2 ave 10798 max 8871 min
Histogram: 3 1 1 0 0 1 0 1 0 3
Neighs:    186516 ave 903682 max 15372 min
Histogram: 7 1 0 0 0 0 1 0 0 1

Total # of neighbors = 1865160
Ave neighs/atom = 50.3363
Ave special neighs/atom = 0.165164
Neighbor list builds = 820906
Dangerous builds = 0
write_data        C199_H2_1020watergcmc2ns.data
PPPM initialization ...
  using 12-bit tables for long-range coulomb (../kspace.cpp:321)
  G vector (1/distance) = 0.168895
  grid = 40 9 30
  stencil order = 5
  estimated absolute RMS force accuracy = 0.0285998
  estimated relative force accuracy = 8.61275e-05
  using double precision FFTs
  3d grid and FFT values/proc = 3640 1080
WARNING: Neighbor exclusions used with KSpace solver may give inconsistent Coulombic energies (../neighbor.cpp:472)





Total wall time: 131:17:34
